Geometry = GenFormat {
522  S
C  F  H  N
1     1  -1.383876297591   2.753104328012  -3.932800731718
2     1  -5.625149613566   9.477913403102  -3.690127637249
3     1  -9.696282056516   0.556176108727  -2.298127569782
4     3  -4.595952622146   7.762420593739  -3.029122127764
5     1  -8.696120341915   2.678687131815  -2.915273460547
6     1 -11.011999015005   1.084356189455  -2.574100026057
7     3  -0.471011073752   3.269481389029  -3.642155669393
8     1  -6.446044645909   5.677443525261  -3.702290169808
9     1  -5.530120524272   8.113232456149  -3.463522989011
10     3  -8.576046465585   5.324727819661  -3.390670001566
11     1  -2.657505576469   0.915860825134  -4.722723429478
12     1 -11.173835768707   2.462261430401  -2.897273056644
13     1  -1.406409683581   1.445532326227  -4.406589590855
14     1  -6.888199038097  10.017370476520  -4.124382018152
15     1  -5.125808893639   3.660499608564  -3.863464817161
16     3  -8.730044049523   7.202050154820  -4.246269843249
17     1  -6.222386366563   2.898805925126  -3.502923204240
18     3 -10.117104432316   4.211801128218  -3.407442271369
19     3 -12.122299152579   2.989513523661  -2.980129430599
20     1  -7.584036881607   4.881181856964  -3.450892114019
21     3  -6.135225176067   1.813984367244  -3.500121761492
22     1  -7.811598306694   7.771921988518  -4.119201877304
23     1  -3.818145331128   2.983673867931  -4.091626555006
24     3  -7.670916696315   0.818179929252  -2.468704568273
25     3  -4.275074504446   5.577566081458  -4.199084951533
26     1  -5.170873348889   5.039835041064  -3.894400690675
27     3  -2.761966261980  -0.115748883617  -5.053347250078
28     3  -8.970001158803   9.549344060754  -4.674495240828
29     3  -4.855961429211  10.197629953365  -3.416631083814
30     1  -2.540340063293   3.503207803935  -3.897641095244
31     1  -6.600883477599   7.170816537695  -3.783697718505
32     1  -7.998561535113   9.201959824567  -4.327981188303
33     1  -3.791299112434   1.665963129485  -4.622597576223
34     1  -7.518869556156   3.453874830773  -3.304718487590
35     1 -10.002915317134   3.202424789117  -3.016849145485
36     1  -8.614435721597   1.360246842195  -2.488148068418
37     3  -4.753726738798   1.215920416234  -4.858473301920
38     3  -2.503102000982   4.532492831155  -3.546032794501
39     3  -9.573855703610  -0.511960443837  -2.129193168608
40     1  11.460738408035  -1.790750022004  -6.491039288887
41     1   3.374954965969   0.196911707101  -8.100151033505
42     1   7.987345747531  -8.623593160232  -7.658747842177
43     3   5.501628274138  -0.167142542617  -8.409891093547
44     1   6.786058103590  -6.482691218172  -7.580727224838
45     1   6.761677384245  -9.389582901172  -7.638584793750
46     3  12.482395607208  -2.044667166552  -6.767056303962
47     1   5.600233624359  -2.825543070497  -7.824878813114
48     1   4.509514781626  -0.602358005565  -8.306252019734
49     3   4.652488160788  -4.699618025686  -8.133751722432
50     1  10.061859718301  -0.066131614585  -5.647344581755
51     1   5.616501386735  -8.689943387854  -7.681852936676
52     1  11.376630527256  -0.464157440980  -6.019845168632
53     1   2.083680328725  -0.301299646058  -7.910022268703
54     1   7.918559758835  -2.932695265207  -7.085411754670
55     3   2.781499834513  -3.531330742874  -7.437628373669
56     1   7.907093280660  -4.321429374896  -7.097321311598
57     3   4.644921686496  -6.794243576719  -7.701987341309
58     3   4.606882579815  -9.095871200355  -7.663544214528
59     1   5.590898987525  -4.216140953162  -7.869029643576
60     3   8.823207892870  -4.891168253830  -6.953883642761
61     1   3.098490970251  -2.506676391593  -7.622135335332
62     1   9.117051583837  -2.185567016344  -6.623788064772
63     3   8.947124005219  -6.734151070760  -7.865694030659
64     3   6.792854275886  -1.108028060497  -7.631653218254
65     1   6.788039571974  -2.189335221195  -7.508387740068
66     3   9.759710127509   0.872109181578  -5.185985099494
67     3   1.042645966293  -2.265975956590  -7.846198236322
68     3   3.393951502318   1.256426138898  -8.348165229795
69     1  10.467013497815  -2.637135602245  -6.823030413439
70     1   4.385326547170  -1.981134925329  -7.864002570091
71     1   1.963235075805  -1.686319017795  -7.877121740995
72     1   9.016058202563  -0.895689799915  -6.073824096760
73     1   6.764746417962  -4.963891295399  -7.568035153168
74     1   5.623312682564  -7.263917040443  -7.620743048649
75     1   7.988162923637  -7.227989925867  -7.720919834273
76     3   8.030171649748  -0.453082470368  -5.945102710149
77     3  10.536359902271  -3.657843722049  -7.194229485362
78     3   8.929341525491  -9.150835732752  -7.520537992904
79     1  -1.423183147189   2.741459207917   2.913029833839
80     1  -5.373455740765   8.989400376117   3.329696636527
81     1  -9.554148905880   0.178462231359   4.456267315820
82     3  -4.468467740489   7.108985255009   3.495998955555
83     1  -8.573998677486   2.377569755902   4.027982583214
84     1 -10.857782481941   0.677291124099   4.248712334317
85     3  -0.500575973696   3.275966594772   3.131067886179
86     1  -6.451711279537   5.343008092738   3.117401465624
87     1  -5.413042251734   7.589950799622   3.249232116026
88     3  -8.344448623653   5.163185356697   4.145643334881
89     1  -2.554425342192   0.752553170862   2.071124097536
90     1 -10.966604558638   2.106025622249   4.006772285733
91     1  -1.379600096093   1.406897705526   2.441021364664
92     1  -6.474505403172   9.757914348267   2.967794975669
93     1  -5.135441651234   3.350014915146   2.935128848498
94     3  -8.609221867238   7.064939063640   2.641336229840
95     1  -6.213432829203   2.555985630706   3.320848225058
96     3  -9.992738827594   3.938328895915   3.613626361817
97     3 -11.987170889055   2.471718553407   3.911086426078
98     1  -7.500595916599   4.611279078851   3.736064517253
99     3  -6.087224968533   1.475007358933   3.321386223252
100     1  -7.699422174872   7.635822497278   2.816833706322
101     1  -3.843683031160   2.698676072220   2.674621875230
102     3  -7.427689320251   0.650107579704   4.402372099606
103     3  -4.493715837860   5.380670523406   2.306251766109
104     1  -5.297088821148   4.756947658535   2.693555746803
105     3  -2.466193181183  -0.277580282476   1.731296360292
106     3  -8.618865893394   9.527319280028   2.375797061596
107     3  -4.504912695094   9.567787528245   3.638798592315
108     1  -2.661257288814   3.393476520958   2.938195328438
109     1  -6.535174647189   6.842547998554   3.073953102630
110     1  -7.711188554327   9.023747683367   2.702875405600
111     1  -3.785802910652   1.378178640657   2.227187451963
112     1  -7.426343675094   3.202583052300   3.686941336852
113     1  -9.848623450493   2.888326752382   3.860950018678
114     1  -8.442570475575   1.042546836265   4.423594749354
115     3  -4.730021247996   0.901973353899   1.970043533335
116     3  -2.697967241281   4.435361334361   3.250559156291
117     3  -9.352760355662  -0.876292500463   4.633405243411
118     1  11.590821691939  -1.810248439852   0.443230559062
119     1   3.320886477147   0.102327934943  -1.323011341786
120     1   8.161306117096  -8.608208365725  -0.618021571367
121     3   5.396422919179  -0.267467206505  -1.439998705904
122     1   6.836195520731  -6.480361047562  -0.407346531450
123     1   6.928149042497  -9.291214414093  -0.504871523921
124     3  12.583609915332  -2.250372591679   0.371781285622
125     1   5.617961129023  -2.759120823099  -0.549737244868
126     1   4.429152180263  -0.645292678930  -1.114302580466
127     3   4.735272519147  -4.837825566209  -0.764019643096
128     1  10.212911925969   0.087615094084   1.080050888434
129     1   5.689893001512  -8.597234776468  -0.479318318564
130     1  11.455672741609  -0.469116902145   0.868810685954
131     1   2.056400700225  -0.443723008360  -0.992779791160
132     1   7.985073337811  -2.826460324121   0.007745565825
133     3   3.049583466241  -3.609199079454  -0.320036549091
134     1   7.983065451235  -4.218978118884  -0.071006507244
135     3   4.746119446330  -6.599229339456  -0.175824737264
136     3   4.823969614487  -9.205624874861  -0.225387387158
137     1   5.620197906823  -4.213767283825  -0.654927676200
138     3   8.837473944285  -4.809159668632   0.254745858689
139     1   3.106521968923  -2.540577214788  -0.518147786543
140     1   9.212066685656  -2.063055654508   0.420782920641
141     3   8.965944179352  -6.632941756794  -0.698873470562
142     3   6.788237097878  -1.109470386927  -0.113864642848
143     1   6.823882020773  -2.152672239053  -0.421926458981
144     3  10.013695924029   1.026287392998   1.593519514495
145     3   1.026830509985  -2.252832605194  -0.366813434115
146     3   3.383314192721   1.171989131223  -1.513721709452
147     1  10.494181042271  -2.595118718258   0.245662722871
148     1   4.366447444899  -1.995063741094  -0.746109424941
149     1   1.959102317780  -1.765580138158  -0.645913856196
150     1   9.120452299220  -0.703320339058   0.829032748605
151     1   6.822291288818  -4.926542298077  -0.485974380117
152     1   5.666558313703  -7.169458031443  -0.285707710659
153     1   8.042277656677  -7.204849218060  -0.634029408185
154     3   8.180704743439  -0.272701715078   1.169451416791
155     3  10.519884854680  -3.674689997644   0.110356081472
156     3   9.099866688293  -9.156978833705  -0.666988628445
157     1  -1.490151730924   2.725378853536   9.421622819996
158     1  -5.546244012932   9.416490455035  10.271114682212
159     1  -9.717520147302   0.636221425815  -9.284639900303
160     3  -4.582763280917   7.669266179046 -10.097703639331
161     1  -8.751789917525   2.756010488629 -10.015153982719
162     1 -11.063244715027   1.141228930240  -9.507283900468
163     3  -0.500405748575   3.145567042916   9.589811746229
164     1  -6.393906385026   5.721274038827   9.944673089890
165     1  -5.460552264033   8.048682763921  10.232342792306
166     3  -8.375015135244   5.357597414630 -10.206093854357
167     1  -2.890670473915   0.768141029648   9.008257483027
168     1 -11.146596387421   2.492712209402  -9.949481691124
169     1  -1.627631784339   1.363552029131   8.999696238801
170     1  -6.715635506799   9.963676331358   9.582879179729
171     1  -5.142571190308   3.637551308463   9.762667241925
172     3  -8.531740103597   7.103138065660   9.118201312187
173     1  -6.268015547036   2.842957220806  10.160784089635
174     3 -10.170354531840   4.341550988626 -10.385029032971
175     3 -12.107178623520   2.897338079364 -10.262535072131
176     1  -7.462975340648   4.859029104925  10.320964359279
177     3  -6.191916449132   1.757489544221  10.181071744051
178     1  -7.708192360133   7.781343155806   9.333258764680
179     1  -3.935978147137   2.867872344778   9.450842831598
180     3  -7.668637111840   0.917114580768  -9.603115217803
181     3  -4.269570802596   5.578014275231   9.621415413371
182     1  -5.218053978372   5.050434256609   9.701924579260
183     3  -2.974263918433  -0.296284008686   8.797415816237
184     3  -8.677935039600   9.596772123249   8.815181677575
185     3  -4.929063625841  10.146677221952 -10.058560328861
186     1  -2.671752653773   3.482103857992   9.630440884564
187     1  -6.473572637075   7.203023775363   9.815193822713
188     1  -7.759170743460   9.112745110325   9.140808390889
189     1  -4.052133412773   1.489295440267   9.233261650201
190     1  -7.489360357675   3.476692995798 -10.318382675029
191     1 -10.054180605550   3.285965182693 -10.146942988419
192     1  -8.606935978255   1.463673728969  -9.530238105326
193     3  -4.982317109351   0.943930474465   9.085687694313
194     3  -2.634223726828   4.533908372714   9.907463593011
195     3  -9.642555190521  -0.360027089629  -8.853001287359
196     1  11.504392485557  -1.836037985572   7.518189077231
197     1   3.219722681380   0.101303862911   5.659426455536
198     1   8.390435541973  -8.411076385382   6.053996532671
199     3   5.276678421084  -0.122790012928   5.730946020908
200     1   6.897311990617  -6.418851302745   6.272458611740
201     1   7.261840053401  -9.234077960415   6.257026784190
202     3  12.506290232236  -2.237801189520   7.379516902084
203     1   5.475866246197  -2.802980544374   6.477594281800
204     1   4.352832379940  -0.688367620747   5.836175285795
205     3   4.774901839783  -4.832863070724   5.898576043842
206     1  10.115483855216   0.162866352673   8.099018011651
207     1   6.007115838043  -8.606959751192   6.480043206843
208     1  11.380020774987  -0.456303088630   7.877843699372
209     1   1.935307972797  -0.497776817896   5.918274115865
210     1   7.859264759149  -2.781343626764   7.159042755802
211     3   2.829041672432  -3.599731099837   6.589089147327
212     1   7.916235648746  -4.179161090782   7.000502398746
213     3   4.925983981338  -6.752314364649   6.840552207937
214     3   5.213852145353  -9.346577753928   6.570268826236
215     1   5.610314225360  -4.240792158523   6.267331957881
216     3   8.857872588173  -4.655003180263   7.267592120609
217     1   2.980795227316  -2.530187484973   6.456839241561
218     1   9.081397346948  -2.005920765489   7.501592437830
219     3   9.004172854440  -6.386609078434   5.803841128534
220     3   6.495608717608  -1.089883373814   7.101996131651
221     1   6.610363376587  -2.153577670468   6.902425218166
222     3   9.994075926922   1.231917721781   8.262822861154
223     3   0.852877842494  -2.217767900849   6.440487891971
224     3   3.326777430118   1.106695202894   5.256722752029
225     1  10.386115325694  -2.562846200105   7.300155018291
226     1   4.225183871396  -1.993486932083   6.348949932121
227     1   1.845402552246  -1.793694847537   6.300847346848
228     1   9.010399666740  -0.657296107634   7.908085175046
229     1   6.814726523060  -4.888474327252   6.513400682937
230     1   5.846596367136  -7.229968643454   6.510761420510
231     1   8.186448997989  -7.057394754184   6.060389389886
232     3   8.034606360388  -0.243785866013   8.155632021512
233     3  10.381377196913  -3.614167085068   7.018828363286
234     3   9.378931728943  -8.814923559037   5.843697968159
235     1   6.795327364809  -1.744705888333  -3.700926976239
236     1  10.254794259746   0.370454758207  -2.310122351071
237     1   8.126077914660  -8.073582808343  -4.503618891273
238     2  10.019768438386   1.602573540397  -1.859333685846
239     1   3.394472113806   0.498089736698  -4.833618384122
240     1   7.018502921733  -8.957371426433  -4.295393025262
241     2   5.619697830825   0.104660080769  -5.482555861392
242     1   6.838487872287  -6.080050621660  -3.773916494028
243     1   9.101805726053  -0.405173946262  -2.465653735337
244     2   4.674507496531  -8.992980528511  -3.458056838411
245     1   5.641268964258  -3.864118977785  -4.178573790820
246     1   5.845474894588  -8.335229468730  -3.838373879011
247     1   2.106694885452   0.105048641717  -4.351248658945
248     1  11.588283029241  -0.156264797236  -2.447993938297
249     1   5.640361718495  -2.444630395755  -4.048486591012
250     2   9.055515299191  -5.934450542161  -4.642822860225
251     1   1.964717583260  -1.271382361969  -4.065318637319
252     2   7.906855385881   0.089863564267  -2.178718381053
253     3   4.713260277270  -4.281892587680  -4.564200332020
254     1   9.233397502808  -1.723847853570  -2.936870204921
255     2   9.378617189275  -8.472942405216  -4.829384165491
256     1  10.502422565442  -2.159878735229  -3.227528361481
257     1   7.858916753541  -3.861315936612  -3.238164008163
258     3   6.707058811594  -0.660580487937  -3.737306894324
259     2   4.539488700197  -6.416985993528  -3.242714625753
260     1   4.423745680045  -1.634129379524  -4.327916366549
261     2   0.748771095378  -1.801323426232  -3.801279692526
262     2  10.661929706271  -3.482082410874  -3.573839575227
263     2  12.835275218653  -2.073849803718  -3.280849602056
264     1   7.966307359072  -2.448057120062  -3.303771547678
265     1   4.510707264877  -0.311238056547  -4.819735970285
266     1  11.666458776684  -1.475752035338  -2.931090466640
267     1   6.766242564713  -4.558984772778  -3.671477761257
268     1   3.113390216797  -2.109034209778  -4.009664842881
269     1   5.707828329641  -6.949767820934  -3.625698375014
270     1   8.031124452256  -6.696709331956  -4.256513285855
271     2   2.914884998742  -3.389112761986  -3.707688416242
272     2   3.638530560630   1.798139666723  -5.238215161327
273     3   8.671102893238  -4.372125637993  -2.724481369874
274     1   6.666177534409  -1.659687897401  10.236520111415
275     1   1.750148814323  -1.385177587981   9.502052120311
276     1   5.575232801826  -8.241713290901   9.930851245120
277     2   0.596651106271  -1.984923047770   9.785419316435
278     1  10.174590729053   0.461583254902  -9.084671523118
279     1   6.783310282426  -8.898207375210   9.494420150342
280     2   7.864623889903   0.427843445404  -9.118896068631
281     1   6.687434631847  -5.973432688974   9.810834798936
282     1   2.920234449782  -2.108562528003   9.843373709937
283     2   9.081828241165  -8.613525257118   8.969096441990
284     1   7.710649063446  -3.806497621878 -10.352968760539
285     1   7.901822898793  -8.075113344935   9.376839996134
286     1  11.517546839215  -0.011247951721  -9.378107887681
287     1   1.844608500021   0.006555693381   9.086523910291
288     1   7.795131253784  -2.394699443855 -10.303943332817
289     2   4.357304676452  -6.330073681364  10.415090465883
290     1  11.466918242447  -1.387420740639  -9.800667617308
291     2   2.754118736668  -3.330529636265  10.392515033340
292     3   8.645143160397  -4.327106179776 -10.152643428407
293     1   4.207543861319  -1.576517159615   9.584387570671
294     2   4.481297818674  -8.878983478746  10.345920442564
295     1   4.258365412560  -0.334662846247   8.962135232800
296     1   5.478280362356  -3.708297979845   9.680310390784
297     3   6.795847926568  -0.585247709985  10.351440122893
298     2   9.025050152966  -6.013701662148   9.575859801614
299     1   9.024862615261  -1.611170379881  -9.873695364466
300     2  12.616059110819  -1.990550796594 -10.110209325819
301     2   5.427212138176   0.207197631444   8.495199781938
302     2   3.309215809166   1.699576420846   8.241183099434
303     1   5.476069616304  -2.321035186178   9.889650966452
304     1   8.988744942808  -0.270624610646  -9.357801904023
305     1   3.115129069527   0.481210656077   8.732117444027
306     1   6.624569853900  -4.492160567353  10.010614818619
307     1  10.310120604790  -2.146902238763 -10.023515140084
308     1   7.867548441934  -6.671018818846   9.562497746313
309     1   5.557136986460  -6.827426407170  10.030479889661
310     2  10.520579503492  -3.435246364989  10.418101833806
311     2  10.082986829010   1.714719264954  -8.602001911800
312     3   4.540300195172  -4.040660247473   9.239661709249
313     1  -7.509941388187   4.436710052269  -6.702475495659
314     1 -11.195233800267   2.111652926784  -6.122425100468
315     1  -1.434651233811   2.238066303701  -7.633695847915
316     2 -12.414754041507   2.712417537190  -6.044145187941
317     1  -7.873065371331   8.584851220746  -7.930089253144
318     1  -1.417361831696   0.872086760742  -8.078517665402
319     2  -8.750319629312   6.456600473784  -8.174957305046
320     1  -3.898823929876   2.337032910894  -7.759889408916
321     1 -10.054711925720   2.849971108188  -6.436519732282
322     2  -2.789852873059  -0.898392382053  -8.921789080488
323     1  -5.260128214166   4.506859413786  -7.564913524546
324     1  -2.690472460131   0.376957619929  -8.458572177190
325     1  -6.858060783861   9.477636861781  -7.606247725425
326     1 -11.158292094820   0.688333417858  -5.804538364065
327     1  -6.390083485926   5.193062202483  -7.102986170802
328     2  -2.585865641972   4.129425690874  -6.916423830940
329     1  -5.664851093626   8.887851733916  -7.089711645963
330     2 -10.223583475327   4.143659170689  -6.644414502835
331     3  -4.343781286256   4.988311834618  -7.901000733207
332     1  -8.739839793234   2.317266829463  -6.331823581478
333     2  -0.297297735573   2.786357430267  -7.213996534515
334     1  -8.704376682656   0.971240351937  -5.875772932088
335     1  -6.319950579660   2.396937128175  -7.155581708983
336     3  -8.420730812434   4.940417967741  -6.384381673683
337     2  -5.014629313762   0.319130203658  -8.384379173902
338     1  -6.525343193797   6.657484544003  -7.251372856612
339     2  -4.658578531624   9.773867747648  -6.768448327378
340     2  -7.553329995644   0.338469543317  -5.600803286559
341     2  -9.613506227035  -1.139159899242  -5.450143007515
342     1  -7.526248074942   3.051608183953  -6.712658361409
343     1  -7.719371850604   7.250453772992  -7.767716448823
344     1  -9.855063594891   0.172212690398  -5.748113084748
345     1  -5.158882580117   3.060018065997  -7.484366079916
346     1  -5.455268827249   7.522528569979  -6.937752147932
347     1  -3.909774256669   1.009684974360  -8.229207242872
348     1  -2.658819622551   2.941841420808  -7.434339790516
349     2  -4.304760924542   7.014505730406  -6.396163461120
350     2  -9.078433421389   9.046326609216  -8.315850657292
351     3  -6.469019771199   1.319069298060  -7.135037719235
352     1   6.855171461505  -1.947704362852   3.201469434215
353     1  10.393060849007  -0.080243331646   4.773506114569
354     1   8.137584833137  -8.230263669391   2.576791892830
355     2  10.308224059306   1.146360091343   5.281236521177
356     1   3.502125851538   0.522502509496   1.937659774829
357     1   7.097455732734  -9.084096136464   2.955613653781
358     2   5.810882947388   0.114583989105   1.571422033063
359     1   6.774380945442  -6.223689962599   3.088385711830
360     1   9.211116328580  -0.727257444740   4.515680790397
361     2   4.852573454497  -9.332906118323   3.700678816726
362     1   5.459193864198  -4.002547658551   2.800525875176
363     1   5.887233183433  -8.495277002072   3.381460710143
364     1   2.166092347525   0.082887929962   2.123656526998
365     1  11.747599811140  -0.697970957678   4.512607422529
366     1   5.600284007922  -2.555596391681   2.812775144855
367     2   9.079334750952  -6.081338526758   2.468194497427
368     1   2.028045859070  -1.240891804936   2.690658106706
369     2   8.066457321412  -0.092582374774   4.832797729240
370     3   4.659430449050  -4.566663834222   2.324506801593
371     1   9.202119268954  -2.039612289259   4.007441165397
372     2   9.245433484841  -8.744624755944   2.072209916171
373     1  10.471900166073  -2.632361030006   3.824812498607
374     1   7.769551609173  -4.119297476273   3.577399122361
375     3   6.934192481899  -0.862341811471   3.215127617749
376     2   4.522936512640  -6.687359670188   3.725733775450
377     1   4.458350474001  -1.623100136910   2.575221348836
378     2   0.814108099471  -1.728090833500   2.952198459283
379     2  10.617535311948  -3.872123331810   3.340401074694
380     2  12.867283594615  -2.658007487541   3.876435624494
381     1   7.920424966777  -2.744691566449   3.553019140446
382     1   4.645132646072  -0.322962371243   2.094882991050
383     1  11.726387378008  -1.992267582374   4.071953069690
384     1   6.590614754599  -4.729826783493   3.206021322988
385     1   3.180974571045  -2.018872491267   2.903176239684
386     1   5.705506170186  -7.108407641209   3.323910186739
387     1   8.025810334970  -6.835804956037   2.755034601539
388     2   2.958371264957  -3.261334110435   3.421234994466
389     2   3.752029583436   1.746769429328   1.532079497273
390     3   8.573538784697  -4.665639486002   4.066845503391
391     1  -7.589706465899   4.487875208117   0.235430929184
392     1 -11.173817253171   1.921649369470   0.614455206183
393     1  -1.450596715527   2.220251027722  -0.542021040293
394     2 -12.443763969455   2.499769671314   0.416613499919
395     1  -7.799881176681   8.685562047053  -0.725920469341
396     1  -1.447466258283   0.937813924499  -1.099867975252
397     2  -8.759751022052   6.486157596115  -0.969915268278
398     1  -3.911785034449   2.462927893067  -0.830637811779
399     1 -10.108492862897   2.779509631381   0.340913414596
400     2  -2.901303128457  -0.756456329687  -2.110018317774
401     1  -5.259996645634   4.583793468010  -0.610776274972
402     1  -2.735447427739   0.439319242593  -1.470699391208
403     1  -6.724228454849   9.589968640729  -0.390136904708
404     1 -11.038005759303   0.579705249650   0.979261947322
405     1  -6.478112395505   5.233050992927  -0.219130950233
406     2  -2.469483880281   4.243930449978   0.011228833688
407     1  -5.586717673401   8.966419308453   0.101025899466
408     2 -10.348080243370   4.095627996793   0.114851865408
409     3  -4.489997570891   5.265381189713  -0.967122107506
410     1  -8.778655840112   2.295836458864   0.516264990125
411     2  -0.254929154498   2.624756078314  -0.098071625426
412     1  -8.663788942463   0.916897547476   1.001642674417
413     1  -6.355402106781   2.493961580238  -0.240152155203
414     3  -8.425443055478   4.956583362657   0.751473328409
415     2  -5.000533974396   0.689472827039  -2.009064743788
416     1  -6.538904695811   6.678390367421  -0.226882345829
417     2  -4.414590956990   9.616411927702   0.349532191471
418     2  -7.519531486209   0.267167341464   1.078998780814
419     2  -9.480960138040  -1.221946596555   1.347535975113
420     1  -7.553168031324   3.092345845784   0.108268410841
421     1  -7.758517475015   7.294308047181  -0.590765086266
422     1  -9.713347729481   0.059408324955   1.050137299325
423     1  -5.170621495853   3.176961979073  -0.609144991570
424     1  -5.468818382519   7.567839884557   0.110393451670
425     1  -3.910927125547   1.191605794244  -1.417884565077
426     1  -2.633750195563   2.986354482673  -0.430983385424
427     2  -4.286311486761   6.963986811808   0.402200071628
428     2  -9.017988263077   9.234189725344  -1.116661901169
429     3  -6.352015885330   1.405880184591  -0.262738521986
430     1  -7.433088702917   4.566632727179   6.947145868741
431     1 -11.206550013178   2.116453465835   7.269218389931
432     1  -1.611934752799   1.993842662650   6.093151331032
433     2 -12.355586074011   2.655163960555   6.753534687178
434     1  -7.561685788219   8.861584620232   6.040130935777
435     1  -1.609783097678   0.651649850308   5.791256450823
436     2  -8.698391231898   6.764164565582   5.800474557538
437     1  -3.947562517969   2.281691587102   5.944793489956
438     1 -10.031485077532   2.925263293714   7.170111594040
439     2  -3.025648202072  -1.257998800191   5.420500446855
440     1  -5.169777651531   4.519364219318   6.113673285102
441     1  -2.914215363008   0.064404772236   5.579749875737
442     1  -6.441206369934   9.607235326129   6.307040974268
443     1 -11.149694873781   0.782239688207   7.741867984150
444     1  -6.312175543130   5.242353603659   6.377509216773
445     2  -2.498236197753   4.041525185476   6.721158396599
446     1  -5.309214281980   8.918038589436   6.758355833681
447     2 -10.102747558646   4.125990697436   6.560875313580
448     3  -4.297384952625   5.060509927856   5.752376954203
449     1  -8.761529503925   2.434811441928   7.505713661231
450     2  -0.441856216615   2.673616016592   6.296667018148
451     1  -8.701951094528   1.147545944348   8.043620211325
452     1  -6.337932924406   2.431920574523   6.713622669219
453     3  -8.206897639469   5.241817959832   7.307405994971
454     2  -5.217986635845   0.217917793631   5.353339430004
455     1  -6.390597582868   6.719490518142   6.468692389081
456     2  -4.278050639114   9.570020964204   7.306016110324
457     2  -7.516999782863   0.698685019996   8.591756503052
458     2  -9.780608905553  -0.785497090079   8.814489003110
459     1  -7.510093745807   3.188379986040   7.052976717131
460     1  -7.557737754653   7.464798853903   6.113761146501
461     1  -9.870568646551   0.381919396282   8.176311483013
462     1  -5.175144002419   3.059100379052   6.208699333741
463     1  -5.250997094263   7.536475437417   6.809979813653
464     1  -4.043965695984   0.893391797190   5.544056583667
465     1  -2.678731578548   2.855715063670   6.184864217988
466     2  -4.105729822037   7.000976637888   7.191085037734
467     2  -8.726498524631   9.436379195033   5.662232099430
468     3  -6.310144894204   1.362995477898   6.916279269874
469     3   1.063836230484   1.930387418099  -5.079918510122
470     4  -0.290859622507   0.552333492894  -4.344474641086
471     1   0.927974059814   0.955822990469  -4.580695272808
472     3  -0.316533169991  -0.811469122399  -8.831240994665
473     4   0.994316670434   0.579041665792  -7.846553704616
474     1  -0.181890996267   0.124373469903  -8.262445492021
475     3   8.000239806215 -10.830043939397  -4.964991014833
476     4   6.049711939351 -11.120681478275  -4.181004277111
477     1   7.091190528390 -10.419600255945  -4.493160974214
478     3  -8.126023731999  11.251226004078  -7.708602143806
479     4   6.884883122420 -10.774550407041  -7.606841853730
480     1  -7.085343573827  10.884572423731  -7.705747725220
481     3 -12.175923104598  -1.121989870027  -5.231648081240
482     4  12.523967205479   0.358400369099  -5.945346287598
483     1 -12.370102589658  -0.088547210038  -5.565936564228
484     3 -13.553969480984   1.918962031696  -8.984873721754
485     4 -12.190044353680   0.330920445506  -9.468002605415
486     1 -13.377053845669   0.856537291556  -9.224483244652
487     3   1.269721821844   2.060482945767   1.594156149000
488     4  -0.183535310887   0.664733376819   2.288040036179
489     1   1.012906031691   1.051877939451   1.960516329931
490     3  -0.428687632387  -0.882819487597  -1.580224278958
491     4   0.966688037863   0.474232837041  -0.951295910565
492     1  -0.195591927204   0.116905252226  -1.175656573358