Geometry = GenFormat {
522  S
C  F  H  N
1     1  -1.384107147867   2.753999270477  -3.932202703696
2     1  -5.625684126145   9.478763081422  -3.690649330390
3     1  -9.696328346517   0.557505184617  -2.297650563025
4     3  -4.594512565123   7.763549057040  -3.025195405599
5     1  -8.696314557379   2.679553502061  -2.915316215229
6     1 -11.012628389437   1.085226128830  -2.574314493217
7     3  -0.474486035308   3.269946342659  -3.642379517059
8     1  -6.446180323323   5.677920205101  -3.702478182605
9     1  -5.530774161878   8.114393291315  -3.463669441272
10     3  -8.575397274987   5.324801989033  -3.391759222235
11     1  -2.657418971444   0.916828456979  -4.722346953199
12     1 -11.174306796025   2.463068070688  -2.897469665062
13     1  -1.406249576302   1.446440544333  -4.406348207814
14     1  -6.888714302342  10.019196483264  -4.124516252002
15     1  -5.126322016229   3.661253886626  -3.863403204538
16     3  -8.725780790684   7.204874948006  -4.246997866459
17     1  -6.222407359872   2.899279678422  -3.502544137984
18     3 -10.117426391146   4.213332050979  -3.408275912834
19     3 -12.125466616990   2.992758606588  -2.979595427379
20     1  -7.584433049425   4.881829567238  -3.451128427399
21     3  -6.135694504537   1.821201751104  -3.499653809693
22     1  -7.812275419393   7.772797774110  -4.118649305108
23     1  -3.818475465800   2.984388812887  -4.091395393156
24     3  -7.669656503060   0.819559201781  -2.472703470784
25     3  -4.268124153349   5.578937984990  -4.203020147229
26     1  -5.171501089775   5.040200147973  -3.894346388753
27     3  -2.762049623940  -0.110688013356  -5.051941461134
28     3  -8.968533001127   9.549785186921  -4.674577147269
29     3  -4.851610115521  10.204645274999  -3.415575490088
30     1  -2.540719395509   3.503923226775  -3.897904131370
31     1  -6.601153334398   7.171351779286  -3.783790630853
32     1  -7.999221272411   9.203512936770  -4.328330200695
33     1  -3.791067409160   1.666866467662  -4.622724400095
34     1  -7.519122681430   3.454454439359  -3.304983524052
35     1 -10.003056956600   3.203161098637  -3.016469381590
36     1  -8.614553034455   1.361422185623  -2.487774325263
37     3  -4.751044269509   1.217886256694  -4.857414663477
38     3  -2.503552286244   4.532603282530  -3.547474878978
39     3  -9.573111514420  -0.516204090543  -2.128190309994
40     1  11.459838220650  -1.791482167836  -6.490836094510
41     1   3.375039743005   0.195899831663  -8.099394146674
42     1   7.987010000697  -8.625055359111  -7.659001865646
43     3   5.506442461597  -0.165590972115  -8.409236056205
44     1   6.785961929746  -6.483467596370  -7.580558813573
45     1   6.761561374581  -9.391709305833  -7.638720091882
46     3  12.489178532444  -2.043361623062  -6.769273590115
47     1   5.600493396055  -2.826188584112  -7.825375478270
48     1   4.509614220722  -0.603352652073  -8.306778981449
49     3   4.651426874146  -4.700429947915  -8.133267281530
50     1  10.061406550984  -0.066922817651  -5.647006259625
51     1   5.615269533789  -8.692326201038  -7.682536466540
52     1  11.376419578986  -0.464482604804  -6.019990426074
53     1   2.082917703269  -0.301941515437  -7.909627577064
54     1   7.918139506265  -2.933546604255  -7.085183950238
55     3   2.782364495067  -3.527284164908  -7.438633678692
56     1   7.907163716983  -4.322212903841  -7.096967150383
57     3   4.647125496460  -6.795845490175  -7.702715380516
58     3   4.623562941613  -9.090798167638  -7.665300808190
59     1   5.591016334582  -4.216456368423  -7.869056653135
60     3   8.824110068725  -4.892460789266  -6.955538394281
61     1   3.098388074865  -2.507930203169  -7.621446085256
62     1   9.116598867187  -2.186629517407  -6.623259143755
63     3   8.948422238157  -6.734891477918  -7.866784738014
64     3   6.792718532769  -1.113804766297  -7.631667058891
65     1   6.787913873582  -2.189619897597  -7.508704936014
66     3   9.759008353398   0.870528997066  -5.186269010366
67     3   1.047904759532  -2.263637221995  -7.848960752882
68     3   3.391626358441   1.259210747985  -8.350330078310
69     1  10.466856145381  -2.638626053680  -6.822938392581
70     1   4.385482897123  -1.981921873413  -7.863729227963
71     1   1.962678832423  -1.687351101489  -7.877355880660
72     1   9.015628876059  -0.896498637737  -6.074072118408
73     1   6.764754766929  -4.964506042417  -7.568259865197
74     1   5.623415639439  -7.265151780491  -7.621130884996
75     1   7.987769580836  -7.229017060829  -7.721423505241
76     3   8.035594325776  -0.456175938172  -5.947227825101
77     3  10.535380313088  -3.656833479135  -7.193547560121
78     3   8.925236034187  -9.149801953799  -7.519831506265
79     1  -1.423742827925   2.741761466521   2.912869513372
80     1  -5.373465956117   8.989538931395   3.328987268526
81     1  -9.554498896513   0.179490533378   4.456215302788
82     3  -4.470543701519   7.110525606850   3.494699879583
83     1  -8.573926498163   2.378407245560   4.027881419174
84     1 -10.858008632011   0.677967142701   4.248700305794
85     3  -0.498511731471   3.278028444418   3.131409747264
86     1  -6.451790045356   5.343668963492   3.117208100265
87     1  -5.413445840793   7.590435991460   3.248810901590
88     3  -8.346704958768   5.164225723485   4.145554656820
89     1  -2.554209883178   0.753381097212   2.070491956155
90     1 -10.966331938233   2.106779776176   4.006895153695
91     1  -1.379548207035   1.407757959008   2.440872499776
92     1  -6.473908999428   9.758709339882   2.967380543598
93     1  -5.135641743404   3.350741252388   2.935064755658
94     3  -8.602773516303   7.071142218761   2.643937207293
95     1  -6.213427466846   2.556820781909   3.320612303372
96     3  -9.992643937968   3.936443346731   3.613312458123
97     3 -11.987020922495   2.472460655876   3.911576397156
98     1  -7.500457668721   4.611977464524   3.736589472908
99     3  -6.086630904184   1.474625072917   3.321353321591
100     1  -7.699916589262   7.636767230938   2.817059747899
101     1  -3.843962531804   2.699615375162   2.674355448944
102     3  -7.433810299388   0.652852605971   4.400790059026
103     3  -4.494309723924   5.382385345424   2.306145457809
104     1  -5.297413660810   4.757944454434   2.693531515700
105     3  -2.466646364786  -0.275077827296   1.732236714068
106     3  -8.622359916711   9.530224811475   2.373936406608
107     3  -4.497637756056   9.570766938911   3.647059530779
108     1  -2.661471856712   3.393854558880   2.937996216677
109     1  -6.535236772319   6.843358280423   3.074195183695
110     1  -7.710938336055   9.024664792532   2.703207929091
111     1  -3.786096450457   1.378886121500   2.226930538494
112     1  -7.426423854949   3.203360229976   3.686936665065
113     1  -9.848313570102   2.889124580606   3.860725691009
114     1  -8.442515618036   1.043353779803   4.423705011466
115     3  -4.728987092137   0.903931610784   1.970445425661
116     3  -2.697762358765   4.435157628023   3.250012418961
117     3  -9.352063335439  -0.876529339905   4.633542138468
118     1  11.590344770374  -1.810603046486   0.443289264068
119     1   3.320816173330   0.101507933084  -1.323435615508
120     1   8.160553960710  -8.609735158118  -0.617923510801
121     3   5.395522872335  -0.269064730352  -1.440947953700
122     1   6.835316243586  -6.481487895257  -0.406875635548
123     1   6.927844741461  -9.293049493725  -0.504742481626
124     3  12.585144812229  -2.251008553201   0.373567845911
125     1   5.617812121031  -2.759490772714  -0.549496893321
126     1   4.429108131314  -0.645942245420  -1.113925165582
127     3   4.737257091719  -4.838437642332  -0.762355200176
128     1  10.212493307819   0.086945652398   1.080039593089
129     1   5.689223432180  -8.598610421687  -0.479466491545
130     1  11.455331344464  -0.469669455491   0.868599136185
131     1   2.055899828848  -0.444403891050  -0.992915652484
132     1   7.984721812592  -2.827360874120   0.007687806103
133     3   3.050894021694  -3.607876483424  -0.320120040002
134     1   7.982888784111  -4.219843417561  -0.071078252052
135     3   4.747620724494  -6.600261560609  -0.175438806208
136     3   4.825301694354  -9.206623064514  -0.223869260638
137     1   5.619631864989  -4.214638756152  -0.655036898908
138     3   8.837870472391  -4.811192267305   0.254365675997
139     1   3.106234019496  -2.541537700606  -0.517915897857
140     1   9.212354834119  -2.064189973447   0.420862497809
141     3   8.969647937759  -6.632197859542  -0.698583862126
142     3   6.784408411414  -1.098601729363  -0.106855556662
143     1   6.824492386069  -2.154675498262  -0.423176877213
144     3  10.012190748030   1.024127165374   1.594595020375
145     3   1.028503051001  -2.251337119187  -0.366173293307
146     3   3.380708909738   1.173149670290  -1.513198775102
147     1  10.494297967920  -2.596647038582   0.245355797599
148     1   4.366182467092  -1.995831719384  -0.745999041614
149     1   1.958577407856  -1.766161622668  -0.645826237345
150     1   9.119502086346  -0.704146141404   0.829078461715
151     1   6.821835716409  -4.927255160710  -0.486376893139
152     1   5.666079518210  -7.170255231331  -0.285220051519
153     1   8.041170365426  -7.206232990166  -0.634073638903
154     3   8.190147942083  -0.278708381412   1.166487883791
155     3  10.520574418895  -3.664724822367   0.113978650169
156     3   9.103670806440  -9.162337510903  -0.666985532591
157     1  -1.490237568753   2.725839928967   9.421721606649
158     1  -5.547262370614   9.417624285298  10.270460966448
159     1  -9.717707315059   0.637355309730  -9.284404380568
160     3  -4.579316756554   7.668411677249 -10.097408453942
161     1  -8.751784921116   2.757106232551 -10.015551679385
162     1 -11.064019867045   1.141896677352  -9.507709976962
163     3  -0.500667606172   3.145633034579   9.590664918523
164     1  -6.394041676218   5.722480847404   9.943966637606
165     1  -5.460978572949   8.050241477347  10.231831294008
166     3  -8.376586680061   5.358825328076 -10.204987288027
167     1  -2.891266471105   0.769572602679   9.008518846330
168     1 -11.146675120532   2.493720090976  -9.949737037080
169     1  -1.628008529193   1.364026088695   8.999464737997
170     1  -6.715674392004   9.965470365462   9.582762568472
171     1  -5.142468003152   3.638754661199   9.762581659171
172     3  -8.530794125280   7.105569407022   9.119182135276
173     1  -6.267738662214   2.843422658081  10.159900314768
174     3 -10.171624662645   4.346725484872 -10.383831575015
175     3 -12.110908559155   2.899841858786 -10.264325720583
176     1  -7.462506476559   4.859295381691  10.320391549186
177     3  -6.191626674609   1.762760135697  10.181028288656
178     1  -7.708585974147   7.782809471823   9.333107085190
179     1  -3.936202493821   2.868868513976   9.450421429242
180     3  -7.652666776063   0.911445984969  -9.610698801136
181     3  -4.267812010176   5.580426191726   9.625695282259
182     1  -5.218470281505   5.051585667166   9.701533877168
183     3  -2.975364978110  -0.297552318180   8.796636061848
184     3  -8.677021753994   9.597504779420   8.816435020937
185     3  -4.919478616431  10.154548678508 -10.047696131453
186     1  -2.671841317760   3.482986822546   9.630259199849
187     1  -6.473501900249   7.204468123709   9.814734406922
188     1  -7.759434852578   9.114102468991   9.140608634369
189     1  -4.052288653482   1.490533456623   9.233806132381
190     1  -7.488950239079   3.477144354186 -10.318069510874
191     1 -10.054334937415   3.286844580876 -10.147005038015
192     1  -8.608520422354   1.465203252440  -9.529561685318
193     3  -4.987155933679   0.942889438225   9.084967532015
194     3  -2.634258965578   4.532807359997   9.906933949456
195     3  -9.643628682196  -0.360237686307  -8.851514879315
196     1  11.504232798707  -1.836368839623   7.518748017190
197     1   3.219699176981   0.100495708934   5.659488792092
198     1   8.390285860310  -8.412856323767   6.053958688818
199     3   5.272995925282  -0.126729192661   5.733256187288
200     1   6.896772820932  -6.419929874455   6.272227369994
201     1   7.261671012190  -9.236228292547   6.256750274499
202     3  12.510134241160  -2.239533192313   7.377980978028
203     1   5.475808632428  -2.803911875570   6.477835412016
204     1   4.352880359335  -0.689364947657   5.835920634072
205     3   4.773161278031  -4.834756158400   5.897224478349
206     1  10.114809686608   0.162625026063   8.099121883357
207     1   6.006608547181  -8.608361557836   6.480186318504
208     1  11.379786875233  -0.456498670279   7.878269453318
209     1   1.935171503240  -0.498949559355   5.918211032542
210     1   7.859334591670  -2.782204271629   7.159118400023
211     3   2.831632133058  -3.603041257486   6.585679806809
212     1   7.915383873619  -4.179183652591   7.000314292409
213     3   4.929013949995  -6.753690862590   6.841423363928
214     3   5.217510133601  -9.347238634304   6.567747617097
215     1   5.610912791832  -4.241781869728   6.267097822771
216     3   8.869640634819  -4.662916015390   7.269318690737
217     1   2.980541108357  -2.530064089994   6.457624813916
218     1   9.081642188332  -2.006665358653   7.501730184189
219     3   9.002823580410  -6.388186312534   5.802667071601
220     3   6.496234155784  -1.092613320176   7.100225020086
221     1   6.609988168957  -2.154558870607   6.902905484956
222     3   9.992898734544   1.233229395056   8.261733199484
223     3   0.860177654839  -2.214720132672   6.438284631886
224     3   3.326444240606   1.102605521440   5.257965580980
225     1  10.386357433848  -2.563838123440   7.299933814865
226     1   4.224439967826  -1.994049964235   6.349628489013
227     1   1.844718364339  -1.794578454472   6.301094525806
228     1   9.010186833793  -0.658075524381   7.907568556666
229     1   6.814986868568  -4.889182068574   6.513173096351
230     1   5.846069468925  -7.230624598258   6.510824251706
231     1   8.186078598764  -7.059044105281   6.060378152225
232     3   8.035471396684  -0.245353649171   8.153637806488
233     3  10.382342775694  -3.611516610467   7.022268249882
234     3   9.377291999709  -8.815490046299   5.842869430660
235     1   6.795329054935  -1.745553196782  -3.700746773565
236     1  10.254959080737   0.369556753971  -2.310257724095
237     1   8.126207680402  -8.074564931778  -4.503688236570
238     2  10.019482320154   1.601633354644  -1.859263534825
239     1   3.394231575126   0.497450368997  -4.833868631767
240     1   7.018599065955  -8.959008562423  -4.295534447587
241     2   5.619685332817   0.103750635969  -5.482603649504
242     1   6.838509535125  -6.080796225970  -3.773404040531
243     1   9.101636921078  -0.405820030268  -2.465643456480
244     2   4.674175227879  -8.993255878924  -3.457988066075
245     1   5.641020650442  -3.864507136456  -4.178895605882
246     1   5.845928635701  -8.336235235297  -3.838679029132
247     1   2.106259404890   0.104630176020  -4.350907438719
248     1  11.588768383678  -0.156910691950  -2.448035141957
249     1   5.640747940671  -2.445092002385  -4.048388818111
250     2   9.055343657227  -5.935292368582  -4.642845141731
251     1   1.964582814157  -1.271864962784  -4.065579446380
252     2   7.906481917902   0.088748199325  -2.179085349466
253     3   4.718602679318  -4.280488996879  -4.563891886850
254     1   9.233662281172  -1.724527162571  -2.936859173645
255     2   9.379131909932  -8.473091553224  -4.829491833355
256     1  10.502511942161  -2.159988882560  -3.227634487533
257     1   7.858358122153  -3.861356290114  -3.238675877848
258     3   6.705819346220  -0.657689387953  -3.738101372158
259     2   4.539240424093  -6.417924581916  -3.243145997088
260     1   4.423956162077  -1.634576013035  -4.327831780446
261     2   0.748596327046  -1.802084033906  -3.801550427024
262     2  10.661771272051  -3.482774664518  -3.573177645356
263     2  12.835476371136  -2.074949169299  -3.281269130483
264     1   7.966493568270  -2.448588191497  -3.303970644427
265     1   4.510442247815  -0.311784553410  -4.820007985860
266     1  11.666860330571  -1.476455621370  -2.930842353645
267     1   6.766345489644  -4.559563866773  -3.671255242388
268     1   3.113535541722  -2.109570709372  -4.009542167318
269     1   5.707653165071  -6.950633316873  -3.626068573410
270     1   8.031266715351  -6.697627235146  -4.256019712492
271     2   2.915077239857  -3.389590692965  -3.707824011376
272     2   3.638738807739   1.797879085615  -5.238246941326
273     3   8.676634603578  -4.375448192564  -2.720087747367
274     1   6.666393171781  -1.659255248043  10.236899467647
275     1   1.749918204643  -1.385770384764   9.501705902900
276     1   5.575373342794  -8.242429804666   9.931139939529
277     2   0.596643640234  -1.985545264571   9.785765317669
278     1  10.174676994109   0.461001052403  -9.084640100758
279     1   6.783118829520  -8.899749825013   9.494407723882
280     2   7.864981735439   0.427528302407  -9.118742919018
281     1   6.687715185727  -5.973824249024   9.810260901716
282     1   2.920248667559  -2.108985450300   9.843710748826
283     2   9.081760362910  -8.614364180262   8.969293928577
284     1   7.710721964086  -3.807286116212 -10.352924123174
285     1   7.901609086906  -8.076159551055   9.377129265337
286     1  11.517979845984  -0.011482870558  -9.378158034189
287     1   1.844097254395   0.006646933117   9.087258176651
288     1   7.794958485464  -2.395378605326 -10.304264026416
289     2   4.357350810712  -6.330806424377  10.414519183096
290     1  11.466733793847  -1.387988062239  -9.800576986210
291     2   2.754397193342  -3.331157973762  10.392638860861
292     3   8.637594895830  -4.323843130834 -10.155323126966
293     1   4.207539482250  -1.576852238579   9.584720925710
294     2   4.481389760112  -8.879217679475  10.346150612231
295     1   4.258280810062  -0.335308162093   8.962226563282
296     1   5.478391480241  -3.708526408823   9.680603806596
297     3   6.795475727042  -0.597743980549  10.349422054194
298     2   9.024848345178  -6.014081475303   9.576193342078
299     1   9.024710230176  -1.611685832632  -9.874432822155
300     2  12.615796239097  -1.991036292054 -10.110375925766
301     2   5.427248923730   0.206645254984   8.494771559460
302     2   3.309494455403   1.698911495618   8.241354419962
303     1   5.476050826523  -2.321388992998   9.890051337369
304     1   8.988754391468  -0.271321784528  -9.357776662117
305     1   3.114687722785   0.480790463021   8.732191523126
306     1   6.624668307163  -4.492582557113  10.010862269282
307     1  10.309902944295  -2.147408697142 -10.024143346049
308     1   7.867587998750  -6.671681461457   9.562442830463
309     1   5.557514088190  -6.827939137807  10.030350185918
310     2  10.520709321511  -3.436056722484  10.417858788363
311     2  10.083057550005   1.714172244499  -8.602142161779
312     3   4.540392224743  -4.040811643122   9.238856827617
313     1  -7.510399730160   4.436962231344  -6.703048254824
314     1 -11.195240764187   2.112279615436  -6.122697781582
315     1  -1.434536956500   2.238751138313  -7.633980485445
316     2 -12.414927781099   2.712919538199  -6.044107157212
317     1  -7.872849823934   8.585455197266  -7.930023536885
318     1  -1.416737955323   0.872363326191  -8.078125331703
319     2  -8.750259331538   6.457201355576  -8.174674932512
320     1  -3.898823439153   2.337671319211  -7.759874489868
321     1 -10.054681039335   2.850693208851  -6.436948225711
322     2  -2.790488151749  -0.897473541407  -8.921745294740
323     1  -5.259977728862   4.507665724325  -7.565050759457
324     1  -2.690410173473   0.377986088647  -8.458569870807
325     1  -6.857141550765   9.477496248156  -7.606293204060
326     1 -11.158989853509   0.688776533224  -5.804741658309
327     1  -6.390375352009   5.193692427463  -7.102698950559
328     2  -2.585736912349   4.130046162955  -6.916809794275
329     1  -5.664385644156   8.887780881745  -7.089474716351
330     2 -10.223362560393   4.144455317209  -6.643887251713
331     3  -4.347708024375   4.985859310506  -7.898574305513
332     1  -8.739633099366   2.318307854783  -6.331936813062
333     2  -0.297524236512   2.787138656360  -7.213766731695
334     1  -8.704727127743   0.972279329082  -5.875633694495
335     1  -6.320135900626   2.397986493923  -7.155655252930
336     3  -8.415167305508   4.937128817733  -6.387304205172
337     2  -5.014960931538   0.320458696797  -8.384122556859
338     1  -6.525349109440   6.658002728040  -7.251082212034
339     2  -4.658800633514   9.774971959376  -6.768090829636
340     2  -7.553650196729   0.339251926622  -5.600873953635
341     2  -9.613410015758  -1.138298554073  -5.450173424685
342     1  -7.525645049883   3.052578462861  -6.712971739023
343     1  -7.719481522312   7.251368651636  -7.767079231756
344     1  -9.855787395705   0.173211574276  -5.748069720811
345     1  -5.158673018113   3.060431630214  -7.484224705716
346     1  -5.454886562651   7.522732235345  -6.937677231808
347     1  -3.909945250238   1.010388099862  -8.229225617102
348     1  -2.658975594400   2.942534877243  -7.434134348979
349     2  -4.304419364394   7.014872743596  -6.396224796489
350     2  -9.078261710439   9.046812991919  -8.315689453065
351     3  -6.467150660438   1.322090426943  -7.135309345685
352     1   6.855564985897  -1.948807069657   3.201558236449
353     1  10.392885592140  -0.080818827951   4.773391227941
354     1   8.137413910974  -8.231656725175   2.576801116511
355     2  10.308223870874   1.145749256518   5.281190983824
356     1   3.501731821540   0.521589236178   1.937489519413
357     1   7.097119188954  -9.085543656856   2.955690259749
358     2   5.810851028835   0.113279695000   1.571267421612
359     1   6.774774097305  -6.224228694904   3.088336607667
360     1   9.210967146956  -0.727746518477   4.515649274668
361     2   4.852502850853  -9.333698300246   3.700664269591
362     1   5.459239116561  -4.003041449643   2.801006979360
363     1   5.887304003452  -8.495811839606   3.381596882233
364     1   2.165340747321   0.082180520907   2.123242957601
365     1  11.748072636986  -0.699171321006   4.512405002762
366     1   5.600297606585  -2.556382654433   2.813102571679
367     2   9.079597096202  -6.082079202743   2.468438349853
368     1   2.027805788290  -1.241727587391   2.690905315701
369     2   8.066278831186  -0.093065041059   4.832578714908
370     3   4.658466307233  -4.569459859436   2.323148152073
371     1   9.201713804817  -2.040234991048   4.007556078273
372     2   9.245381741598  -8.745124626725   2.071624660397
373     1  10.471450574082  -2.632932691923   3.824946071671
374     1   7.769032262104  -4.119603951141   3.577044634033
375     3   6.934401509251  -0.860093896781   3.214963190812
376     2   4.523229110624  -6.688044146751   3.726199956931
377     1   4.458295130887  -1.623817824859   2.575512771653
378     2   0.813869256531  -1.728995207089   2.952173147430
379     2  10.617189223852  -3.872815209799   3.340666324466
380     2  12.867346667544  -2.658930937418   3.876474970994
381     1   7.919988410482  -2.745666432341   3.552717940415
382     1   4.645147901632  -0.323767836843   2.095290204198
383     1  11.726455293053  -1.993125634367   4.071851610525
384     1   6.590513447832  -4.730390292361   3.206130878075
385     1   3.181066284939  -2.019380384977   2.903578692329
386     1   5.705717231692  -7.108674437280   3.323825406515
387     1   8.026173545032  -6.836800429649   2.755279051133
388     2   2.957984515777  -3.262427564218   3.420686015766
389     2   3.751907993697   1.745570218592   1.532027310214
390     3   8.578339947186  -4.666778827601   4.060662506107
391     1  -7.589826848735   4.488533196347   0.235533904081
392     1 -11.173715357376   1.921960016034   0.614511555558
393     1  -1.450247421308   2.221229619271  -0.542345969550
394     2 -12.444094624694   2.500260839470   0.416302477804
395     1  -7.799725494777   8.686132060205  -0.726081334480
396     1  -1.446781931137   0.938642394095  -1.100019628533
397     2  -8.759885712255   6.486306133158  -0.969573882485
398     1  -3.911833464271   2.463876644479  -0.830845566894
399     1 -10.108730046138   2.780313242242   0.340699911115
400     2  -2.901702930152  -0.755628142000  -2.109972300463
401     1  -5.260225818809   4.584793608818  -0.610829769960
402     1  -2.735365898077   0.440107741874  -1.469941584790
403     1  -6.723470501561   9.590512856219  -0.390362328471
404     1 -11.038027906453   0.580318629872   0.978987910961
405     1  -6.478346563081   5.234001002333  -0.219034603197
406     2  -2.469804711683   4.244849436168   0.011071241951
407     1  -5.586863508689   8.967179931999   0.101659165756
408     2 -10.348532418740   4.096589026085   0.115109834298
409     3  -4.491970194096   5.265703588169  -0.970837417802
410     1  -8.778749638861   2.296896435608   0.516158288553
411     2  -0.254417765797   2.625523648086  -0.098617620613
412     1  -8.664010885583   0.917717576333   1.002319911549
413     1  -6.354745987868   2.496244368789  -0.239597236946
414     3  -8.429710378616   4.957120463981   0.749248065041
415     2  -5.000759405666   0.690910532700  -2.009105933888
416     1  -6.539182334129   6.679004028280  -0.226803742292
417     2  -4.414431508499   9.617165289560   0.349297581742
418     2  -7.520031683333   0.267504360701   1.078910438323
419     2  -9.480468742111  -1.220963089626   1.347468162454
420     1  -7.553110346870   3.093102024902   0.108132243696
421     1  -7.759018860074   7.294903281838  -0.590301552476
422     1  -9.713481863016   0.060129250833   1.049858789860
423     1  -5.170827801582   3.178045548295  -0.609057819934
424     1  -5.469018706280   7.568683688919   0.110409113000
425     1  -3.910930948440   1.192462303102  -1.417806458480
426     1  -2.633698536758   2.987235473698  -0.431108889177
427     2  -4.286495265178   6.964846472985   0.401879781359
428     2  -9.018081512788   9.234951185045  -1.116872104368
429     3  -6.351037809105   1.395271680371  -0.259086629764
430     1  -7.432464979159   4.567143017008   6.946605422718
431     1 -11.206790278205   2.117098846281   7.269757052229
432     1  -1.612385348682   1.994243423277   6.093592355419
433     2 -12.355766935437   2.656158531993   6.753810572394
434     1  -7.561596100437   8.862593507516   6.040253974421
435     1  -1.609499129065   0.652124560686   5.791738784280
436     2  -8.698649302552   6.765306999615   5.800341938410
437     1  -3.947483521397   2.282823836074   5.945244096002
438     1 -10.031461284290   2.926093609725   7.170282898847
439     2  -3.026237708161  -1.257306317138   5.420832454980
440     1  -5.169569677724   4.520307327196   6.114306985828
441     1  -2.914436627932   0.065029227280   5.579774964452
442     1  -6.440697433543   9.607381501494   6.307585808570
443     1 -11.150268573434   0.782602895149   7.741234546152
444     1  -6.312194602345   5.242932881324   6.376808106001
445     2  -2.497778892631   4.042490169824   6.721417508989
446     1  -5.308997066372   8.918281346039   6.758441896077
447     2 -10.102641737052   4.126926122351   6.560902354989
448     3  -4.299468264163   5.058916194975   5.753889290931
449     1  -8.761726021839   2.435497275924   7.505596257286
450     2  -0.442189154980   2.674592192400   6.296868236988
451     1  -8.702183343228   1.148322290618   8.043594253758
452     1  -6.337425035644   2.433632804278   6.713813421005
453     3  -8.209856090238   5.244350440640   7.304896592546
454     2  -5.218392098055   0.219360571860   5.353045895817
455     1  -6.390821803420   6.720062985121   6.468940108748
456     2  -4.278040352352   9.570770918474   7.305802336487
457     2  -7.516726613760   0.699795830712   8.591843659384
458     2  -9.780866791575  -0.784322377436   8.814848127343
459     1  -7.510641677873   3.189157902942   7.052865266058
460     1  -7.557796886876   7.465827096522   6.113776271119
461     1  -9.871287550283   0.382782785793   8.176288840090
462     1  -5.175132073126   3.060106027780   6.208888161348
463     1  -5.250928005719   7.536965538694   6.810208372284
464     1  -4.044023042105   0.894438347841   5.544298590176
465     1  -2.678604937898   2.856951548231   6.185031634391
466     2  -4.105709001861   7.002053659485   7.191126860669
467     2  -8.726777905510   9.436815252229   5.662035260847
468     3  -6.309223253224   1.353438015362   6.916144062510
469     3   1.063679397719   1.928631235011  -5.079539414408
470     4  -0.291254328548   0.553284387418  -4.344713515104
471     1   0.928187959117   0.955646077869  -4.580593760385
472     3  -0.316346658496  -0.812731586145  -8.833849015806
473     4   0.994719417461   0.578702488493  -7.847019848950
474     1  -0.182095533440   0.124809480859  -8.262015938024
475     3   8.003262840633 -10.833572815983  -4.964998941384
476     4   6.051639697492 -11.123640941457  -4.181188872175
477     1   7.092301157910 -10.421524906168  -4.492876149282
478     3  -8.117868048058  11.251158601399  -7.704714416336
479     4   6.885524784355 -10.776726482780  -7.606517504438
480     1  -7.084897115426  10.885269405138  -7.706144636480
481     3 -12.174338064938  -1.123928328299  -5.233708048318
482     4  12.526303481887   0.358605765498  -5.945046711249
483     1 -12.368389636910  -0.088358786793  -5.565644711166
484     3 -13.553551086841   1.918280691097  -8.985706169754
485     4 -12.188816657893   0.331954610376  -9.468078082629
486     1 -13.376187725168   0.857178480638  -9.224575139933
487     3   1.271434766708   2.064032920360   1.596278437273
488     4  -0.184169422051   0.665700847961   2.286898649703
489     1   1.012805852151   1.051483666629   1.960901168496
490     3  -0.430526076067  -0.894118408602  -1.586182911897
491     4   0.967030810035   0.473724468122  -0.951817395541
492     1  -0.195292019884   0.119047688227  -1.175179717061