Geometry = GenFormat {
522  S
C  F  H  N
1     1  -1.384425596514   2.754088684960  -3.932216404817
2     1  -5.626277764452   9.479361225922  -3.690705673402
3     1  -9.697177471050   0.557766889642  -2.297669200820
4     3  -4.595028214093   7.764090292065  -3.025253595196
5     1  -8.696794449682   2.679862775646  -2.915312856754
6     1 -11.013857281885   1.085226884118  -2.574273370256
7     3  -0.474934990763   3.270353948961  -3.642478517862
8     1  -6.446651256363   5.678237329617  -3.702470801856
9     1  -5.531335602646   8.114864739348  -3.463705159594
10     3  -8.575873340424   5.325114831681  -3.391756590153
11     1  -2.657502792360   0.917109993044  -4.722263277805
12     1 -11.174947103064   2.463125408619  -2.897432611908
13     1  -1.406047777297   1.446400080469  -4.406336021213
14     1  -6.889139673422  10.020249014157  -4.124562356637
15     1  -5.126789632937   3.661564529222  -3.863397514747
16     3  -8.726234773948   7.205456169409  -4.247001187008
17     1  -6.222873958008   2.899590410974  -3.502530528836
18     3 -10.118074784773   4.213503102127  -3.408187881317
19     3 -12.125919493537   2.993175984518  -2.979496153327
20     1  -7.584904505763   4.882144388933  -3.451119649912
21     3  -6.136151155429   1.821511083149  -3.499623510420
22     1  -7.812685950525   7.773315846230  -4.118633325744
23     1  -3.818933664963   2.984692929509  -4.091378937969
24     3  -7.670378542130   0.819746755487  -2.472675381138
25     3  -4.268590309775   5.579250582756  -4.203010542415
26     1  -5.171969112662   5.040513471771  -3.894339379009
27     3  -2.762529360041  -0.110350495749  -5.051994911784
28     3  -8.968985591317   9.550055665841  -4.674595789793
29     3  -4.851941585318  10.205045620618  -3.415785102254
30     1  -2.541094053248   3.504099542775  -3.897916775711
31     1  -6.601613066965   7.171685991950  -3.783775473140
32     1  -7.999535212440   9.204178523144  -4.328323909061
33     1  -3.791317612363   1.667122400438  -4.622697734796
34     1  -7.519596959823   3.454763111074  -3.304968495018
35     1 -10.003621424958   3.203312610406  -3.016434175144
36     1  -8.615251885317   1.361680635377  -2.487770486471
37     3  -4.751283435301   1.218098230462  -4.857436930226
38     3  -2.503863831383   4.532807722497  -3.547543617832
39     3  -9.573577750807  -0.515900875152  -2.128130603461
40     1  11.460339334818  -1.791711747581  -6.490788930746
41     1   3.375219806993   0.195681208336  -8.099346472565
42     1   7.987086079978  -8.625839268890  -7.658993971236
43     3   5.506778263034  -0.165744638032  -8.409170921370
44     1   6.786448666433  -6.483753659057  -7.580535690665
45     1   6.761993491751  -9.393077914559  -7.638754387732
46     3  12.489709437306  -2.043508504110  -6.769106557584
47     1   5.600986080639  -2.826445533373  -7.825358335099
48     1   4.509960623708  -0.603567602894  -8.306730511818
49     3   4.651925646423  -4.700691185868  -8.133248774949
50     1  10.061713512173  -0.067199809186  -5.646899534878
51     1   5.615846328188  -8.693050261321  -7.682533885728
52     1  11.376794570603  -0.464798293935  -6.019793245662
53     1   2.082737775441  -0.301893961913  -7.909656660031
54     1   7.918630387959  -2.933813289891  -7.085159883545
55     3   2.782749888166  -3.527428760184  -7.438687522640
56     1   7.907663127723  -4.322473141841  -7.096947064788
57     3   4.647657762337  -6.796333377332  -7.702706648238
58     3   4.623928928751  -9.091114003867  -7.665378964774
59     1   5.591515503543  -4.216715417204  -7.869038406829
60     3   8.824606262301  -4.892732452170  -6.955528659332
61     1   3.098811303801  -2.508070551948  -7.621432661287
62     1   9.117107239651  -2.186895894043  -6.623231549415
63     3   8.948887267332  -6.735493509401  -7.866737566341
64     3   6.793190994826  -1.114059113749  -7.631637243563
65     1   6.788412046354  -2.189878188703  -7.508676026849
66     3   9.759293328911   0.870278168402  -5.186200045067
67     3   1.048345475988  -2.263885400180  -7.849153544027
68     3   3.392135299839   1.258998286950  -8.350351089385
69     1  10.467339653998  -2.638926207040  -6.822938724430
70     1   4.385961894462  -1.982177017043  -7.863703876534
71     1   1.963026235631  -1.687412441259  -7.877335408566
72     1   9.015929801427  -0.896838155119  -6.074083804660
73     1   6.765249605615  -4.964766941895  -7.568242086945
74     1   5.623984800191  -7.265593806992  -7.621110610679
75     1   7.988155408420  -7.229519236903  -7.721397830306
76     3   8.035890092786  -0.456519324811  -5.947291666040
77     3  10.535836297520  -3.657138474966  -7.193530555929
78     3   8.925643836396  -9.150006918967  -7.519822841168
79     1  -1.424061087893   2.741791408749   2.912785010223
80     1  -5.373571904032   8.989381405444   3.329078596661
81     1  -9.555263807938   0.179744636202   4.456198812811
82     3  -4.470957130320   7.110420173052   3.494718525459
83     1  -8.574411123117   2.378692628351   4.027866043038
84     1 -10.859085904106   0.677941110042   4.248757422071
85     3  -0.499039934469   3.278363217265   3.131395846908
86     1  -6.452261544912   5.343948287882   3.117191256798
87     1  -5.413817032852   7.590410138750   3.248874239604
88     3  -8.347176160919   5.164512986235   4.145542328297
89     1  -2.554274286259   0.753677353081   2.070504160502
90     1 -10.966928674952   2.106850933095   4.006924113306
91     1  -1.379341063063   1.407793162913   2.440780279543
92     1  -6.473809645676   9.758826939578   2.967205714473
93     1  -5.136099777637   3.351026734608   2.935055898388
94     3  -8.603246346109   7.071436331878   2.643942878423
95     1  -6.213891558758   2.557109572111   3.320606447543
96     3  -9.993243390863   3.936608740254   3.613353369140
97     3 -11.987564393556   2.472756821571   3.911739084067
98     1  -7.500922332336   4.612269784379   3.736582536671
99     3  -6.087097263063   1.474910887892   3.321346019085
100     1  -7.700402568440   7.637081363571   2.817066288483
101     1  -3.844416216998   2.699896558033   2.674347061165
102     3  -7.434468346927   0.653038675105   4.400776338952
103     3  -4.494767383481   5.382664865784   2.306136053437
104     1  -5.297878457139   4.758234565949   2.693522121252
105     3  -2.467164804166  -0.274811150256   1.732190062406
106     3  -8.622553844996   9.530764422392   2.373809457771
107     3  -4.497787278924   9.570766628263   3.646980326529
108     1  -2.661808993479   3.393977004798   2.937960847393
109     1  -6.535710532269   6.843634053548   3.074183036942
110     1  -7.711265614872   9.025043639999   2.703214994179
111     1  -3.786328135408   1.379152699440   2.226946082804
112     1  -7.426890872236   3.203647455508   3.686933804268
113     1  -9.848869335272   2.889277397472   3.860732837107
114     1  -8.443173603742   1.043579215761   4.423680893614
115     3  -4.729193755052   0.904121707503   1.970448835303
116     3  -2.698024278848   4.435290523588   3.249980997254
117     3  -9.352511962892  -0.876230440342   4.633554919157
118     1  11.590887589120  -1.810899880353   0.443283348086
119     1   3.320970431093   0.101302718799  -1.323384417416
120     1   8.160655221316  -8.610515775994  -0.617883276125
121     3   5.395813312556  -0.269219242668  -1.440972009800
122     1   6.835810338962  -6.481783465180  -0.406879367135
123     1   6.928300766803  -9.294296797493  -0.504772613612
124     3  12.585776911481  -2.251237202130   0.373725286792
125     1   5.618311277252  -2.759742509493  -0.549499240316
126     1   4.429411370406  -0.646145834784  -1.113905893177
127     3   4.737763494587  -4.838698529237  -0.762348811000
128     1  10.212747940715   0.086655895054   1.080059380844
129     1   5.689761904986  -8.599252447910  -0.479446772019
130     1  11.455881991927  -0.469836390338   0.868708976220
131     1   2.055627416605  -0.444278047653  -0.992924564437
132     1   7.985211429785  -2.827631676329   0.007681029425
133     3   3.051277755192  -3.608030374142  -0.320165488780
134     1   7.983395958010  -4.220097161039  -0.071079823194
135     3   4.748171858065  -6.600760498766  -0.175484539151
136     3   4.825651394264  -9.207015499778  -0.223815498780
137     1   5.620139531703  -4.214894510588  -0.655037090026
138     3   8.838365617734  -4.811462864654   0.254365352852
139     1   3.106654583648  -2.541670710775  -0.517932722544
140     1   9.212880799348  -2.064458721906   0.420866243019
141     3   8.970122688730  -6.632907128937  -0.698551248932
142     3   6.784892643466  -1.098856707163  -0.106872472096
143     1   6.825005694542  -2.154931083729  -0.423175293944
144     3  10.012511328396   1.023930711722   1.594554573541
145     3   1.028963629605  -2.251685713720  -0.366320070891
146     3   3.381237701940   1.172943061899  -1.513255910938
147     1  10.494699300814  -2.597053389142   0.245307689721
148     1   4.366686146285  -1.996079564504  -0.745996543261
149     1   1.958946052322  -1.766186167761  -0.645840931851
150     1   9.119654927855  -0.704531169468   0.829047229537
151     1   6.822336809079  -4.927515700513  -0.486379171134
152     1   5.666663596524  -7.170727040972  -0.285235477590
153     1   8.041542997707  -7.206781553370  -0.634048797548
154     3   8.190278203397  -0.279133622502   1.166449414035
155     3  10.520898283514  -3.665145160322   0.113945569790
156     3   9.104106481377  -9.162574252242  -0.667022411398
157     1  -1.490600453076   2.725979952416   9.421666406404
158     1  -5.547904461175   9.418160924878  10.270390003367
159     1  -9.718469786468   0.637652832919  -9.284462407497
160     3  -4.579674604919   7.668863497556 -10.097782435435
161     1  -8.752251103714   2.757419279922 -10.015693112347
162     1 -11.065099839203   1.141863174358  -9.507819999064
163     3  -0.501132792670   3.146050170119   9.590577479391
164     1  -6.394515918992   5.722791632432   9.943998319656
165     1  -5.461571844898   8.050704767259  10.231799512295
166     3  -8.377078904277   5.359190630347 -10.205022901758
167     1  -2.891352919108   0.769844869965   9.008479458257
168     1 -11.147295621498   2.493840265726  -9.949705882853
169     1  -1.627812902358   1.364021850734   8.999401380225
170     1  -6.716063840605   9.966506887449   9.582713250567
171     1  -5.142945954662   3.639059238914   9.762549941498
172     3  -8.531242322228   7.106117172201   9.119138797682
173     1  -6.268234179084   2.843716139823  10.159847443267
174     3 -10.172236316164   4.346978552641 -10.383487938665
175     3 -12.111481032991   2.900195873785 -10.264211955542
176     1  -7.462931385368   4.859600206831  10.320435513908
177     3  -6.192129106495   1.763050239987  10.180940144424
178     1  -7.708996901090   7.783337403061   9.333090746958
179     1  -3.936663239475   2.869163246570   9.450398987737
180     3  -7.653304059645   0.911692818801  -9.610756062498
181     3  -4.268331271402   5.580749198039   9.625611617376
182     1  -5.218972303966   5.051883698067   9.701497248107
183     3  -2.975793533786  -0.297259781703   8.796580297153
184     3  -8.677505149805   9.597828936044   8.816348912948
185     3  -4.919667606798  10.154964554686 -10.048032039138
186     1  -2.672231898161   3.483179454826   9.630201942032
187     1  -6.473975535622   7.204790204143   9.814717451696
188     1  -7.759774512832   9.114735756308   9.140640800051
189     1  -4.052510127893   1.490788512903   9.233756345834
190     1  -7.489446352973   3.477428259169 -10.318211033890
191     1 -10.054861993972   3.287036542161 -10.147027711325
192     1  -8.609139952433   1.465495419580  -9.529588344018
193     3  -4.987374964816   0.943117733617   9.084907285876
194     3  -2.634598592342   4.533016049019   9.906838245403
195     3  -9.644087125272  -0.359946578681  -8.851582260270
196     1  11.504747243120  -1.836613999359   7.518735914222
197     1   3.219769481650   0.100257555813   5.659536251403
198     1   8.390481738578  -8.413616077793   6.054002284322
199     3   5.273206278947  -0.126857041498   5.733198054659
200     1   6.897262362935  -6.420214312497   6.272218915505
201     1   7.262120323074  -9.237497781966   6.256543532766
202     3  12.510690907492  -2.239767467757   7.377986156208
203     1   5.476304143481  -2.804162203341   6.477816374886
204     1   4.353132327384  -0.689568187730   5.835909646474
205     3   4.773660335752  -4.835007251751   5.897205417324
206     1  10.115077873766   0.162362916062   8.099185036479
207     1   6.007212972443  -8.609046278767   6.480150152059
208     1  11.380400730083  -0.456627872558   7.878404943541
209     1   1.935018243759  -0.498902014999   5.918161645893
210     1   7.859823256553  -2.782470316297   7.159100463170
211     3   2.831962577334  -3.603132229944   6.585587998404
212     1   7.915883084233  -4.179436728789   7.000295689673
213     3   4.929563933908  -6.754179684900   6.841385184415
214     3   5.217755445387  -9.347652572143   6.567401279298
215     1   5.611414274388  -4.242036164223   6.267079264030
216     3   8.870132772718  -4.663181401274   7.269299445213
217     1   2.980914448380  -2.530143331618   6.457585857845
218     1   9.082151656146  -2.006932533825   7.501720770774
219     3   9.003337686221  -6.388797242839   5.802677225769
220     3   6.496701919076  -1.092866635348   7.100204580432
221     1   6.610491026220  -2.154810650384   6.902892012405
222     3   9.993163795308   1.233012500322   8.261735929193
223     3   0.860626022967  -2.215034425867   6.438089693794
224     3   3.326941095245   1.102278174709   5.257921784025
225     1  10.386795541223  -2.564187219171   7.299881985735
226     1   4.224924564323  -1.994289762579   6.349616718816
227     1   1.845061140744  -1.794569308388   6.301025415046
228     1   9.010382846263  -0.658435097065   7.907546173137
229     1   6.815482336126  -4.889436536865   6.513149135786
230     1   5.846680680027  -7.231055374088   6.510811329643
231     1   8.186500174244  -7.059564578143   6.060403250112
232     3   8.035650704332  -0.245747151754   8.153600294748
233     3  10.382705923664  -3.611854581773   7.022163720753
234     3   9.377682235582  -8.815728995220   5.842763756345
235     1   6.795830436549  -1.745779982980  -3.700735828980
236     1  10.255850089794   0.369322410097  -2.310228448619
237     1   8.126575562466  -8.075121398893  -4.503679611813
238     2  10.019973039626   1.601405595560  -1.859257119772
239     1   3.394473685336   0.497259611312  -4.833845058677
240     1   7.018942998554  -8.960009440313  -4.295532598488
241     2   5.620159762667   0.103527477449  -5.482588751199
242     1   6.839006813737  -6.081038782118  -3.773394806123
243     1   9.102319135371  -0.405991539205  -2.465609021442
244     2   4.674682664853  -8.993517778945  -3.457985868387
245     1   5.641523600465  -3.864735471042  -4.178887390737
246     1   5.846539937841  -8.336682496351  -3.838730656237
247     1   2.106101108819   0.104638878346  -4.350940945561
248     1  11.589909417817  -0.156886088635  -2.448031309486
249     1   5.641248691243  -2.445318233031  -4.048380736142
250     2   9.055831119398  -5.935550322268  -4.642834033902
251     1   1.964967364307  -1.271887311134  -4.065622917619
252     2   7.907032233838   0.088519596484  -2.179079185214
253     3   4.719101735702  -4.280716438385  -4.563877359164
254     1   9.234181451953  -1.724751155826  -2.936851061885
255     2   9.379636049535  -8.473309984325  -4.829480932527
256     1  10.503080782879  -2.160116498004  -3.227581455574
257     1   7.858859919468  -3.861585562133  -3.238663822785
258     3   6.706320523683  -0.657915016594  -3.738095819797
259     2   4.539751981815  -6.418170219187  -3.243142713219
260     1   4.424445139675  -1.634799646790  -4.327820771816
261     2   0.749070890780  -1.802293307684  -3.801541413732
262     2  10.662284260749  -3.482980364438  -3.573159311783
263     2  12.835998966144  -2.075142844068  -3.281272034429
264     1   7.966996510715  -2.448814392921  -3.303959441458
265     1   4.510774115423  -0.311947465555  -4.819976562360
266     1  11.667511615628  -1.476466435187  -2.930742217638
267     1   6.766847541630  -4.559794932035  -3.671242436457
268     1   3.113998113464  -2.109721158493  -4.009546323019
269     1   5.708198628762  -6.950962924209  -3.626088847344
270     1   8.031725496448  -6.698006893015  -4.256024601402
271     2   2.915569880381  -3.389796342526  -3.707815683874
272     2   3.639250980403   1.797656082052  -5.238241549099
273     3   8.677135599642  -4.375677487186  -2.720074323550
274     1   6.666906064046  -1.659480175857  10.236953838210
275     1   1.750291014722  -1.385791409648   9.501607488492
276     1   5.575940629030  -8.242812364785   9.931110761432
277     2   0.597137455394  -1.985776010221   9.785744497131
278     1  10.175420874663   0.460799935155  -9.084699902449
279     1   6.783497580400  -8.900772867826   9.494408412896
280     2   7.865486660524   0.427293049863  -9.118777062238
281     1   6.688184197479  -5.974054904096   9.810242999590
282     1   2.920681143687  -2.109116613394   9.843647159540
283     2   9.082257940823  -8.614602791619   8.969265738449
284     1   7.711177225351  -3.807516124499 -10.353061712488
285     1   7.901978525321  -8.076703686495   9.377122596941
286     1  11.518957957549  -0.011508105554  -9.378274384918
287     1   1.843966503608   0.006691526973   9.087218697018
288     1   7.795441121466  -2.395607784788 -10.304417292694
289     2   4.357912411927  -6.331072947464  10.414380241609
290     1  11.467308631634  -1.388109688173  -9.800580150051
291     2   2.754875490487  -3.331360151973  10.392603014183
292     3   8.638000415519  -4.324088186651 -10.155455439807
293     1   4.208031753663  -1.577073029664   9.584689719227
294     2   4.481873534415  -8.879439884521  10.346124972171
295     1   4.258594057070  -0.335495109249   8.962190824867
296     1   5.478914485128  -3.708734695763   9.680588952833
297     3   6.796066409909  -0.597983967256  10.349485957386
298     2   9.025314288711  -6.014324413601   9.576167914318
299     1   9.025172574380  -1.611923635638  -9.874485561504
300     2  12.616289416200  -1.991258195630 -10.110408362052
301     2   5.427695196304   0.206421612474   8.494746980026
302     2   3.309977833646   1.698693913666   8.241325610537
303     1   5.476576631856  -2.321618341037   9.890034293371
304     1   8.989336875882  -0.271534413520  -9.357799440124
305     1   3.114781292737   0.480606578159   8.732169756460
306     1   6.625166092960  -4.492810655699  10.010903168026
307     1  10.310403784098  -2.147575077302 -10.024145659307
308     1   7.868014876166  -6.672025108224   9.562401798548
309     1   5.558027885948  -6.828224156715  10.030376533998
310     2  10.521203548329  -3.436277747583  10.418030036559
311     2  10.083547572252   1.713953209495  -8.602168111234
312     3   4.540941182460  -4.041042589658   9.238805590852
313     1  -7.510876957488   4.437238144887  -6.703030951144
314     1 -11.195865854975   2.112361297811  -6.122637022975
315     1  -1.434869563008   2.238804390754  -7.634033154078
316     2 -12.415447417448   2.713198810115  -6.044110230856
317     1  -7.873168275201   8.585794051052  -7.929958648691
318     1  -1.416517873009   0.872405207802  -8.078073240506
319     2  -8.750732418804   6.457483003442  -8.174649397668
320     1  -3.899281071263   2.337946284464  -7.759855729789
321     1 -10.055183002526   2.850894546720  -6.436892814714
322     2  -2.790969810892  -0.897204086720  -8.921731070238
323     1  -5.260451845290   4.507942182075  -7.565032759157
324     1  -2.690577279015   0.378225792068  -8.458509038174
325     1  -6.856933458226   9.477619235436  -7.606414808256
326     1 -11.160610502249   0.688849766832  -5.804923068765
327     1  -6.390850795981   5.193965478745  -7.102683630592
328     2  -2.586198659756   4.130299924250  -6.916800070563
329     1  -5.664453390663   8.887758619652  -7.089326344940
330     2 -10.223847291993   4.144717277834  -6.643862655927
331     3  -4.348179586153   4.986131301875  -7.898558395347
332     1  -8.740147392622   2.318569054872  -6.331912677021
333     2  -0.297969836990   2.787393640727  -7.213749514890
334     1  -8.705517952731   0.972482465460  -5.875567399545
335     1  -6.320610980677   2.398264670888  -7.155633469995
336     3  -8.415645301722   4.937403237849  -6.387283833333
337     2  -5.015397020541   0.320740133480  -8.384106153631
338     1  -6.525803766393   6.658283702381  -7.251059146552
339     2  -4.659262410142   9.775253078171  -6.768075897111
340     2  -7.554199161586   0.339526717429  -5.600860924528
341     2  -9.613883672755  -1.138024577875  -5.450161509964
342     1  -7.526118582106   3.052853440588  -6.712953576927
343     1  -7.719973938474   7.251667187486  -7.767036868482
344     1  -9.857090348171   0.173495157021  -5.748017927869
345     1  -5.159141573989   3.060706996396  -7.484207627108
346     1  -5.455264641970   7.522745536238  -6.937574370508
347     1  -3.910269170318   1.010627929749  -8.229214811033
348     1  -2.659380864755   2.942721824041  -7.434144472104
349     2  -4.304862912238   7.015104690981  -6.396187319050
350     2  -9.078685671502   9.047113007798  -8.315666365953
351     3  -6.467623162074   1.322366213131  -7.135281480066
352     1   6.856072046453  -1.949048226482   3.201549256666
353     1  10.393658736084  -0.081013337155   4.773353316661
354     1   8.137569851847  -8.232521503675   2.576936452126
355     2  10.308726572770   1.145515319604   5.281188010598
356     1   3.501946060926   0.521407249829   1.937475852662
357     1   7.097432488880  -9.086868329241   2.955727270636
358     2   5.811329149286   0.113041086863   1.571262389095
359     1   6.775278820838  -6.224499379945   3.088332036008
360     1   9.211594778445  -0.727965963284   4.515645342158
361     2   4.852987940544  -9.334005364102   3.700658342459
362     1   5.459746714002  -4.003284869829   2.800998674968
363     1   5.887911708596  -8.496347604628   3.381567432592
364     1   2.165159420064   0.082265750405   2.123238535215
365     1  11.749220924198  -0.699174806731   4.512340625196
366     1   5.600801212857  -2.556622276018   2.813094200928
367     2   9.080073052507  -6.082381987772   2.468432123832
368     1   2.028209225750  -1.241795459181   2.690840987185
369     2   8.066813413513  -0.093307650896   4.832572287468
370     3   4.658971403532  -4.569702254516   2.323142355306
371     1   9.202228408203  -2.040471131391   4.007550113195
372     2   9.245882609912  -8.745368276874   2.071615175991
373     1  10.472010382326  -2.633107211724   3.824959696241
374     1   7.769538256040  -4.119848666859   3.577038103354
375     3   6.934906979580  -0.860334213550   3.214956091507
376     2   4.523750469431  -6.688307505415   3.726189151209
377     1   4.458785864733  -1.624058017551   2.575505406030
378     2   0.814361266165  -1.729230515954   2.952170667009
379     2  10.617706434605  -3.873035373642   3.340667956294
380     2  12.867856562861  -2.659175789882   3.876465255966
381     1   7.920494860641  -2.745908581705   3.552710627500
382     1   4.645522139002  -0.323966022182   2.095272471583
383     1  11.727071869407  -1.993191919215   4.071872428339
384     1   6.591020232653  -4.730635225094   3.206121545709
385     1   3.181521064580  -2.019542014585   2.903536793933
386     1   5.706277501990  -7.108991933836   3.323803718744
387     1   8.026628816234  -6.837319226949   2.755287983876
388     2   2.958481236625  -3.262646221092   3.420670472826
389     2   3.752423082590   1.745334238099   1.532018327853
390     3   8.578850707098  -4.667025500668   4.060646680473
391     1  -7.590300519221   4.488807964574   0.235535028564
392     1 -11.174360521313   1.922013647614   0.614567611886
393     1  -1.450584116535   2.221283965645  -0.542406133295
394     2 -12.444610372825   2.500532181000   0.416293435909
395     1  -7.800051768548   8.686490628827  -0.726028542702
396     1  -1.446575633606   0.938586427603  -1.100021471052
397     2  -8.760354133053   6.486586178855  -0.969570712555
398     1  -3.912293024447   2.464146521205  -0.830846617666
399     1 -10.109214727314   2.780505338454   0.340716748857
400     2  -2.902185707170  -0.755352050759  -2.109977171713
401     1  -5.260699253031   4.585071652540  -0.610829456918
402     1  -2.735490843759   0.440346606188  -1.469884979969
403     1  -6.723302704055   9.590657330200  -0.390453069845
404     1 -11.039547227230   0.580465336279   0.978959082333
405     1  -6.478819175342   5.234274510473  -0.219037697980
406     2  -2.470265550242   4.245096737313   0.011062909231
407     1  -5.587048412481   8.967186569630   0.101750478762
408     2 -10.349014267764   4.096854519980   0.115116663637
409     3  -4.492442348806   5.265977922616  -0.970840694416
410     1  -8.779271684388   2.297158105039   0.516159141568
411     2  -0.254852270451   2.625783300281  -0.098589621060
412     1  -8.664856103436   0.917863798326   1.002354768598
413     1  -6.355222941888   2.496521038082  -0.239596870049
414     3  -8.430184721354   4.957396435052   0.749248830986
415     2  -5.001196631029   0.691189185589  -2.009101738584
416     1  -6.539636243705   6.679284619485  -0.226795820615
417     2  -4.414898807771   9.617436183613   0.349287403305
418     2  -7.520621817771   0.267779462870   1.078908060221
419     2  -9.480945561838  -1.220685540823   1.347466153669
420     1  -7.553578328085   3.093379995676   0.108133299007
421     1  -7.759509077193   7.295214716983  -0.590282760528
422     1  -9.714771746018   0.060406776122   1.049899453430
423     1  -5.171295067661   3.178319674629  -0.609059298421
424     1  -5.469434472446   7.568732238905   0.110459953410
425     1  -3.911223341047   1.192687948708  -1.417790938922
426     1  -2.634096482560   2.987418886828  -0.431129685793
427     2  -4.286931684924   6.965075510510   0.401891630975
428     2  -9.018514709692   9.235255138126  -1.116868078728
429     3  -6.351516343843   1.395546344289  -0.259077648543
430     1  -7.432935608169   4.567419185107   6.946588279703
431     1 -11.207464526041   2.117122352777   7.269834963766
432     1  -1.612711143361   1.994332534503   6.093540498330
433     2 -12.356245371345   2.656463021511   6.753766536112
434     1  -7.561913137719   8.862923117195   6.040259389588
435     1  -1.609245042556   0.652106643555   5.791722085841
436     2  -8.699116018707   6.765586737355   5.800326470995
437     1  -3.947938451975   2.283099993748   5.945231981933
438     1 -10.031962778405   2.926292606124   7.170314732321
439     2  -3.026716971552  -1.257032597689   5.420816340740
440     1  -5.170041175062   4.520585493788   6.114289569226
441     1  -2.914592596016   0.065290919371   5.579764976703
442     1  -6.440637491637   9.607499993737   6.307722104981
443     1 -11.151937316784   0.782692291770   7.741133676440
444     1  -6.312667185766   5.243203594775   6.376786368455
445     2  -2.498239525803   4.042741060159   6.721393551869
446     1  -5.309182093481   8.918218807470   6.758598011358
447     2 -10.103124238851   4.127187008337   6.560886187603
448     3  -4.299938413867   5.059189534100   5.753866155683
449     1  -8.762232737129   2.435758647348   7.505577285551
450     2  -0.442625041871   2.674845346632   6.296855212305
451     1  -8.703024011979   1.148498403654   8.043565151098
452     1  -6.337896464816   2.433909793835   6.713797324144
453     3  -8.210325322096   5.244629953083   7.304878365260
454     2  -5.218830439647   0.219635865532   5.353033149480
455     1  -6.391274779582   6.720337779276   6.468929599891
456     2  -4.278492891106   9.571043758549   7.305781919487
457     2  -7.517253519267   0.700063233464   8.591827734395
458     2  -9.781366345135  -0.784067156094   8.814842250774
459     1  -7.511110064738   3.189434611950   7.052849181946
460     1  -7.558281194899   7.466124368013   6.113770248297
461     1  -9.872627507366   0.383001670816   8.176210182540
462     1  -5.175598039351   3.060380945450   6.208868389075
463     1  -5.251337207723   7.536956885551   6.810246348352
464     1  -4.044338085612   0.894676931226   5.544281595984
465     1  -2.679020912755   2.857156563030   6.184999483743
466     2  -4.106138439338   7.002274873453   7.191123439603
467     2  -8.727199708710   9.437138513390   5.662018594009
468     3  -6.309697693137   1.353713140265   6.916127351098
469     3   1.064381972344   1.928264160279  -5.079360104890
470     4  -0.291539831723   0.553802631851  -4.344761360882
471     1   0.928267616606   0.955315861666  -4.580475149163
472     3  -0.317123654987  -0.812330789589  -8.833537047034
473     4   0.994943623992   0.578352695978  -7.847110762429
474     1  -0.182284381464   0.125222287437  -8.261822285854
475     3   8.003786689950 -10.833443393086  -4.964755153419
476     4   6.052410532757 -11.124906287824  -4.181126132684
477     1   7.092553884049 -10.421960237019  -4.492641409828
478     3  -8.118820782281  11.251677485252  -7.705224666123
479     4   6.886311835713 -10.777500843476  -7.606408378657
480     1  -7.085634003085  10.887472673426  -7.706272929299
481     3 -12.176331617054  -1.123733338226  -5.234714463778
482     4  12.528420342500   0.358831900383  -5.944755124425
483     1 -12.369569128974  -0.087840965454  -5.565973201288
484     3 -13.555023469740   1.918050528424  -8.985864403699
485     4 -12.189442331592   0.332467155285  -9.467988909375
486     1 -13.377128912444   0.856979326829  -9.224584142396
487     3   1.271941735639   2.063360298277   1.596164151132
488     4  -0.184424901712   0.666259061035   2.286845544015
489     1   1.012809303053   1.051043351990   1.961155530204
490     3  -0.431273223597  -0.893538204938  -1.585984326409
491     4   0.967312588025   0.473215150511  -0.951899797230
492     1  -0.195418282720   0.119576870339  -1.175059327059