Geometry = GenFormat {
522  S
C  F  H  N
1     1  -1.383881622337   2.753827866853  -3.932823767850
2     1  -5.625476592397   9.479251001055  -3.690217489561
3     1  -9.696667256868   0.557107469013  -2.298148681936
4     3  -4.596175090771   7.763678747527  -3.029216467587
5     1  -8.696286885361   2.679640078193  -2.915278922284
6     1 -11.012611534678   1.085026402515  -2.574106489911
7     3  -0.471156343522   3.270494949547  -3.642254620545
8     1  -6.446204709856   5.678397974375  -3.702290892459
9     1  -5.530395942802   8.114388646391  -3.463585788413
10     3  -8.576210357748   5.325677456497  -3.390681416218
11     1  -2.657328768999   0.916788025168  -4.722656056396
12     1 -11.174143945558   2.462983003017  -2.897246666767
13     1  -1.405988766064   1.446126438828  -4.406577366965
14     1  -6.888395981703  10.019166141692  -4.124426409435
15     1  -5.125966687787   3.661447287503  -3.863467854543
16     3  -8.730181847602   7.203298416260  -4.246283176840
17     1  -6.222543351674   2.899754635480  -3.502920311804
18     3 -10.117419067697   4.212620260708  -3.407373177658
19     3 -12.122456543475   2.990509302015  -2.980083612625
20     1  -7.584198492760   4.882135175516  -3.450893070083
21     3  -6.135372282234   1.814933907100  -3.500105069183
22     1  -7.811690094992   7.773092405261  -4.119198685927
23     1  -3.818292511545   2.984616684577  -4.091619164512
24     3  -7.671246102120   0.819058055787  -2.468693692492
25     3  -4.275230199069   5.578515920497  -4.199083218468
26     1  -5.171031032733   5.040786097783  -3.894402657071
27     3  -2.762148385359  -0.114752476459  -5.053382194300
28     3  -8.970147900233   9.550240381327  -4.674489804515
29     3  -4.856015269057  10.198750234140  -3.416917533680
30     1  -2.540403097932   3.504020889366  -3.897666686319
31     1  -6.601031664696   7.171798769550  -3.783691101121
32     1  -7.998553485002   9.203280654808  -4.327984423472
33     1  -3.791261245203   1.666861076246  -4.622585771970
34     1  -7.519035892971   3.454821024833  -3.304714985574
35     1 -10.003162612182   3.203236227720  -3.016819629112
36     1  -8.614745970617   1.361157990611  -2.488146140035
37     3  -4.753665668846   1.216788399640  -4.858498995089
38     3  -2.503100860250   4.533322177914  -3.546112795479
39     3  -9.573982751400  -0.510994987682  -2.129185985368
40     1  11.460747343286  -1.791416370206  -6.491010385588
41     1   3.374657440707   0.196162387278  -8.100124342004
42     1   7.986881546480  -8.624920373558  -7.658761278666
43     3   5.501454938109  -0.167837811856  -8.409848452477
44     1   6.786024791521  -6.483512162246  -7.580722004172
45     1   6.761648419474  -9.391797421211  -7.638640024533
46     3  12.482427308258  -2.045358704746  -6.766919938595
47     1   5.600211708070  -2.826324072734  -7.824881590136
48     1   4.509360426293  -0.603100550105  -8.306226219581
49     3   4.652472632954  -4.700404491912  -8.133745112377
50     1  10.061726384091  -0.066908568891  -5.647270927142
51     1   5.616590464357  -8.691330183346  -7.681872847426
52     1  11.376613618549  -0.464866187391  -6.019736663986
53     1   2.083055890849  -0.301756685443  -7.910052252358
54     1   7.918535072903  -2.933486022258  -7.085415841802
55     3   2.781360304561  -3.531988953733  -7.437704758366
56     1   7.907077822004  -4.322211905730  -7.097322868366
57     3   4.644960857377  -6.795343720317  -7.702001352104
58     3   4.606772605633  -9.096767141539  -7.663665738873
59     1   5.590883165103  -4.216923170905  -7.869029748603
60     3   8.823187380422  -4.891962427299  -6.953899167873
61     1   3.098394429454  -2.507335455372  -7.622142581463
62     1   9.117054436080  -2.186346950517  -6.623785919909
63     3   8.947051658619  -6.735319785945  -7.865660491245
64     3   6.792822482560  -1.108808674717  -7.631662710488
65     1   6.788026515582  -2.190114607851  -7.508385733968
66     3   9.759488207482   0.871342068938  -5.185989490395
67     3   1.042573116334  -2.266722486381  -7.846401049209
68     3   3.393955642019   1.255659316917  -8.348190012053
69     1  10.466984377138  -2.637940205983  -6.823044120306
70     1   4.385289913248  -1.981913817362  -7.863995151342
71     1   1.963060063192  -1.686892364150  -7.877118282287
72     1   9.015871109644  -0.896557541523  -6.073856623986
73     1   6.764723715436  -4.964678819793  -7.568036338739
74     1   5.623387386972  -7.264940650129  -7.620742577117
75     1   7.988022293127  -7.229034116864  -7.720913904721
76     3   8.029991531598  -0.453925251598  -5.945167649835
77     3  10.536326973849  -3.658656414935  -7.194221659644
78     3   8.929230855271  -9.151528215999  -7.520541530006
79     1  -1.423155961840   2.742091972068   2.912953717461
80     1  -5.373148092125   8.989754006928   3.329805696246
81     1  -9.554421802284   0.179339527718   4.456259986749
82     3  -4.468519167445   7.109405291366   3.496032552137
83     1  -8.574130359837   2.378457323010   4.027975585646
84     1 -10.858191746936   0.677925490502   4.248735094674
85     3  -0.500733437659   3.276882575358   3.131078528048
86     1  -6.451836634652   5.343881529663   3.117391954114
87     1  -5.413046056754   7.590488992853   3.249313758790
88     3  -8.344576650022   5.164064713612   4.145630705755
89     1  -2.554205269333   0.753451147859   2.071143116265
90     1 -10.966838836293   2.106715203772   4.006805253138
91     1  -1.379154459379   1.407531801572   2.440957857738
92     1  -6.473988776934   9.758370426548   2.967590270614
93     1  -5.135552398512   3.350895538041   2.935128477254
94     3  -8.609353590929   7.065788345490   2.641360021161
95     1  -6.213549180284   2.556868919431   3.320848549965
96     3  -9.992980416030   3.939089225766   3.613667548917
97     3 -11.987357362879   2.472562785391   3.911200743116
98     1  -7.500714012842   4.612165121359   3.736063338621
99     3  -6.087342740537   1.475890479874   3.321382741278
100     1  -7.699576979876   7.636712775883   2.816843786919
101     1  -3.843789153055   2.699554678029   2.674621018577
102     3  -7.427930831919   0.650941557884   4.402367558098
103     3  -4.493822981307   5.381544362946   2.306254856886
104     1  -5.297205297209   4.757831394616   2.693555416568
105     3  -2.466376063399  -0.276708328292   1.731289881439
106     3  -8.618682672100   9.528472021224   2.375675702270
107     3  -4.504703740840   9.568372052282   3.638752787690
108     1  -2.661250343940   3.394199814601   2.938165014484
109     1  -6.535301430831   6.843404021336   3.073949954209
110     1  -7.711185963280   9.024656815284   2.702880087371
111     1  -3.785713843209   1.379042525522   2.227204243421
112     1  -7.426465251188   3.203465151428   3.686943336474
113     1  -9.848829037309   2.889086565943   3.860968032085
114     1  -8.442810348204   1.043385036864   4.423590509668
115     3  -4.729901035716   0.902776925909   1.970057665123
116     3  -2.697885773273   4.436084460538   3.250538150127
117     3  -9.352834989035  -0.875377682472   4.633395813477
118     1  11.590870630982  -1.810983357668   0.443246601489
119     1   3.320553896504   0.101595191068  -1.322966799404
120     1   8.160850131376  -8.609535602702  -0.617981822591
121     3   5.396191540081  -0.268160487882  -1.440015421614
122     1   6.836152600478  -6.481189745173  -0.407351479631
123     1   6.928116140725  -9.293193636713  -0.504892439462
124     3  12.583680778960  -2.251079396941   0.371928927352
125     1   5.617927082734  -2.759893056922  -0.549739750492
126     1   4.428944281413  -0.646020084078  -1.114289152663
127     3   4.735251132097  -4.838608054935  -0.764010514383
128     1  10.212699159278   0.086827402713   1.080074198373
129     1   5.689926606605  -8.598512245534  -0.479292202098
130     1  11.455789119750  -0.469702327187   0.868911584297
131     1   2.055675535076  -0.444106380276  -0.992779377456
132     1   7.985026868777  -2.827252986009   0.007738225055
133     3   3.049428347142  -3.609854559670  -0.320090092556
134     1   7.983041230001  -4.219750189472  -0.071007412519
135     3   4.746162172871  -6.600345009201  -0.175887872094
136     3   4.823813802554  -9.206621557088  -0.225334690277
137     1   5.620172768753  -4.214542908018  -0.654927389253
138     3   8.837438450207  -4.809948916081   0.254743399887
139     1   3.106409021111  -2.541228855964  -0.518168494582
140     1   9.212079518166  -2.063833507020   0.420788927833
141     3   8.965879899375  -6.634226569602  -0.698839128073
142     3   6.788190149786  -1.110242119392  -0.113878918756
143     1   6.823864909237  -2.153447669642  -0.421924757580
144     3  10.013508171715   1.025566955874   1.593429564529
145     3   1.026778025898  -2.253670010771  -0.366957407005
146     3   3.383329855986   1.171223069246  -1.513749712613
147     1  10.494048095855  -2.596015940252   0.245627189193
148     1   4.366417027765  -1.995832211494  -0.746107907433
149     1   1.958930258092  -1.766115946836  -0.645930500074
150     1   9.120100330256  -0.704231076407   0.829000811684
151     1   6.822256944191  -4.927324954118  -0.485976100571
152     1   5.666636251704  -7.170524507646  -0.285731157453
153     1   8.042096550261  -7.205946307437  -0.634003898304
154     3   8.180353967826  -0.273614739968   1.169425667784
155     3  10.519726167287  -3.675589926668   0.110337259937
156     3   9.099774703132  -9.157675870341  -0.667029152799
157     1  -1.490192457261   2.726143787919   9.421592561110
158     1  -5.546589754031   9.417753684224  10.271016720758
159     1  -9.717826954873   0.637155685471  -9.284656599181
160     3  -4.582967092966   7.670516841855 -10.097781764988
161     1  -8.751959091133   2.756953617939 -10.015162400633
162     1 -11.063624395486   1.141951041886  -9.507295952200
163     3  -0.500553888747   3.146596335460   9.589752895183
164     1  -6.394059810770   5.722220303736   9.944670131148
165     1  -5.460818386226   8.049825234295  10.232289987963
166     3  -8.375173678692   5.358537377810 -10.206102445520
167     1  -2.890491453540   0.769057909996   9.008246424216
168     1 -11.146891947982   2.493469103192  -9.949432222564
169     1  -1.627192940950   1.364166114661   8.999671788561
170     1  -6.715807805429   9.965583261553   9.582864339991
171     1  -5.142719252520   3.638488672286   9.762663198186
172     3  -8.531853609483   7.104356017985   9.118163137099
173     1  -6.268167689337   2.843897028496  10.160780091737
174     3 -10.170620862746   4.342385874643 -10.384967911185
175     3 -12.107450104864   2.898219233475 -10.262398843170
176     1  -7.463129258922   4.859973142354  10.320961592376
177     3  -6.192057539326   1.758429763290  10.181048287631
178     1  -7.708286006446   7.782522102365   9.333267537725
179     1  -3.936117719822   2.868801270185   9.450842519733
180     3  -7.668897048184   0.918022793531  -9.603096251772
181     3  -4.269719584345   5.578953337337   9.621423745529
182     1  -5.218206100051   5.051377748407   9.701922590617
183     3  -2.974387762105  -0.295343133803   8.797403918820
184     3  -8.678107765121   9.597706343284   8.815148606383
185     3  -4.929089538458  10.147661787025 -10.058645804917
186     1  -2.671823058803   3.482927304133   9.630405688806
187     1  -6.473721446899   7.203993013689   9.815199745837
188     1  -7.759189818812   9.114039450928   9.140876840856
189     1  -4.052062377878   1.490189067432   9.233236670100
190     1  -7.489519091398   3.477633124145 -10.318377173522
191     1 -10.054413074097   3.286797798814 -10.146908457517
192     1  -8.607193986923   1.464586219480  -9.530226402804
193     3  -4.982235075225   0.944808309713   9.085651744916
194     3  -2.634237130092   4.534739845530   9.907390190662
195     3  -9.642670552941  -0.359078156491  -8.853017410936
196     1  11.504406624442  -1.836715053160   7.518189409937
197     1   3.219314230196   0.100540630985   5.659484809088
198     1   8.390072742886  -8.412391357143   6.054060452197
199     3   5.276378356010  -0.123450566574   5.730904513707
200     1   6.897268121389  -6.419662613763   6.272470345977
201     1   7.261805220347  -9.236127437749   6.256817596773
202     3  12.506290332923  -2.238529614033   7.379564620093
203     1   5.475830321739  -2.803747188330   6.477592141568
204     1   4.352576115259  -0.689091927613   5.836175625915
205     3   4.774870336092  -4.833631060181   5.898578384907
206     1  10.115304520401   0.162110350690   8.099083297659
207     1   6.007225514941  -8.608290294443   6.480019392390
208     1  11.380245646412  -0.456824494743   7.877916446033
209     1   1.934712683888  -0.498236119126   5.918254659522
210     1   7.859220592409  -2.782127380571   7.159038457825
211     3   2.828838195679  -3.600325774414   6.589016668775
212     1   7.916206186084  -4.179928228561   7.000498976293
213     3   4.926036425191  -6.753405211704   6.840517686327
214     3   5.213623523541  -9.347594233132   6.569843131214
215     1   5.610285729902  -4.241561992517   6.267330445364
216     3   8.857836293465  -4.655783487425   7.267589322104
217     1   2.980636701675  -2.530782738675   6.456813675253
218     1   9.081390073469  -2.006689757449   7.501598709522
219     3   9.004145804494  -6.387798686861   5.803875367063
220     3   6.495550455721  -1.090652440464   7.101989303998
221     1   6.610337982410  -2.154344862519   6.902427301145
222     3   9.993821879980   1.231169006160   8.262785169872
223     3   0.852796790384  -2.218566728009   6.440322933824
224     3   3.326758594436   1.105862527464   5.256711508568
225     1  10.386030311354  -2.563686458862   7.300133667085
226     1   4.225136597361  -1.994243723704   6.348954341004
227     1   1.845211132965  -1.794198978583   6.300793289105
228     1   9.010096075152  -0.658178895174   7.908072415591
229     1   6.814689472662  -4.889246460097   6.513393136912
230     1   5.846706413095  -7.230974066285   6.510763988963
231     1   8.186328584327  -7.058466214657   6.060434912120
232     3   8.034305295721  -0.244660092130   8.155614921274
233     3  10.381250171029  -3.615000109426   7.018780689095
234     3   9.378769276763  -8.815668472086   5.843609816494
235     1   6.795226273308  -1.745395826820  -3.700925750408
236     1  10.254945136380   0.369744798266  -2.310112774166
237     1   8.125834517385  -8.074622498164  -4.503616518869
238     2  10.019656593047   1.601882157638  -1.859336525483
239     1   3.394138541222   0.497429936868  -4.833604058940
240     1   7.018310918241  -8.959013971647  -4.295425771989
241     2   5.619573392843   0.103973672660  -5.482550951013
242     1   6.838381699529  -6.080763018512  -3.773917857974
243     1   9.101826017670  -0.405823826387  -2.465634331925
244     2   4.674419750349  -8.993727892694  -3.458068717292
245     1   5.641170202589  -3.864810611365  -4.178575442792
246     1   5.845520331490  -8.336214784687  -3.838459093000
247     1   2.106003655853   0.104609372657  -4.351295428766
248     1  11.588510445263  -0.156763694531  -2.447988010333
249     1   5.640260142482  -2.445319825927  -4.048488018909
250     2   9.055400955127  -5.935173611253  -4.642820393898
251     1   1.964496767439  -1.271859817765  -4.065375120505
252     2   7.906783301794   0.089172203297  -2.178720188395
253     3   4.713157372348  -4.282582818035  -4.564193533362
254     1   9.233307162723  -1.724540917001  -2.936872456315
255     2   9.378522007809  -8.473619405741  -4.829381339063
256     1  10.502383451081  -2.160484909326  -3.227489191929
257     1   7.858816702622  -3.862008961118  -3.238163708518
258     3   6.706954694726  -0.661270806376  -3.737309650322
259     2   4.539402609859  -6.417702142135  -3.242723548118
260     1   4.423632665242  -1.634815998380  -4.327914912758
261     2   0.748640555356  -1.801990629666  -3.801281022016
262     2  10.661839033807  -3.482753064646  -3.573831496595
263     2  12.835196396977  -2.074504331812  -3.280856589261
264     1   7.966208195459  -2.448747660481  -3.303771061609
265     1   4.510449599444  -0.311868803023  -4.819717026359
266     1  11.666484775683  -1.476261155385  -2.931012673305
267     1   6.766142384587  -4.559679613969  -3.671475202710
268     1   3.113247533602  -2.109643874930  -4.009680549802
269     1   5.707786316932  -6.950587540573  -3.625740113323
270     1   8.030976209367  -6.697560705996  -4.256530331693
271     2   2.914775043283  -3.389779187937  -3.707690173559
272     2   3.638442690989   1.797453402964  -5.238218639240
273     3   8.671003069930  -4.372818259657  -2.724481029519
274     1   6.666087094001  -1.660371325410  10.236518873242
275     1   1.749936380930  -1.385650798680   9.501977608245
276     1   5.575270808949  -8.242649271602   9.930830762130
277     2   0.596563253688  -1.985608263868   9.785423443881
278     1  10.174634378084   0.460907853250  -9.084687539793
279     1   6.783214795263  -8.899969728072   9.494442816680
280     2   7.864545143090   0.427159840613  -9.118894611911
281     1   6.687343323506  -5.974132372103   9.810831692752
282     1   2.920078053979  -2.109148929416   9.843333700185
283     2   9.081752500726  -8.614213204566   8.969093363352
284     1   7.710558161617  -3.807182542357 -10.352967281710
285     1   7.901602153817  -8.076143737936   9.376860471464
286     1  11.517701912747  -0.011759771002  -9.378089727848
287     1   1.843970649332   0.006155398239   9.086515009707
288     1   7.795041456612  -2.395383246746 -10.303941632350
289     2   4.357224118391  -6.330777024919  10.415082261611
290     1  11.466910594417  -1.388001613212  -9.800637183237
291     2   2.754015911230  -3.331186690047  10.392503232267
292     3   8.645054467984  -4.327790299889 -10.152650176416
293     1   4.207440371322  -1.577193555576   9.584386994113
294     2   4.481202484578  -8.879662070164  10.345915844957
295     1   4.258110456351  -0.335310765579   8.962125862940
296     1   5.478189959707  -3.708982627194   9.680309026827
297     3   6.795756944916  -0.585931308951  10.351441093771
298     2   9.024944705256  -6.014413725331   9.575855536506
299     1   9.024778121467  -1.611856008940  -9.873698196858
300     2  12.615978044380  -1.991222261786 -10.110210145204
301     2   5.427081764154   0.206517509178   8.495200277144
302     2   3.309124602037   1.698901009126   8.241180508534
303     1   5.475976151752  -2.321716580584   9.889649811886
304     1   8.988712520532  -0.271293972633  -9.357795983934
305     1   3.114682367583   0.480561228806   8.732123842638
306     1   6.624479027998  -4.492848163858  10.010613892772
307     1  10.310070855360  -2.147531176839 -10.023496672350
308     1   7.867410088279  -6.671831048775   9.562488313675
309     1   5.557096670365  -6.828205198879  10.030454482726
310     2  10.520496341702  -3.435914507784  10.418099171617
311     2  10.082889460133   1.714042125803  -8.601999632888
312     3   4.540206442235  -4.041341651190   9.239665030346
313     1  -7.510007133945   4.437545866025  -6.702477274667
314     1 -11.195417898405   2.112296605461  -6.122382567758
315     1  -1.434573384370   2.238684774346  -7.633766431101
316     2 -12.414857542436   2.713251017206  -6.044159147859
317     1  -7.872976312379   8.585712905054  -7.930043831849
318     1  -1.416834084610   0.872693298152  -8.078492165682
319     2  -8.750379884774   6.457437194300  -8.174953216326
320     1  -3.898870351781   2.337869326705  -7.759888737276
321     1 -10.054796661418   2.850742031642  -6.436490589415
322     2  -2.789925026569  -0.897561587015  -8.921791842773
323     1  -5.260188984801   4.507696164110  -7.564912951600
324     1  -2.690266525098   0.377765403131  -8.458532811279
325     1  -6.857323892206   9.478080092443  -7.606383718681
326     1 -11.158920959807   0.689056742335  -5.804686214760
327     1  -6.390146811363   5.193896333216  -7.102989337776
328     2  -2.585914883511   4.130239541407  -6.916432812946
329     1  -5.664455957220   8.888343889192  -7.089566988812
330     2 -10.223654748458   4.144482982161  -6.644408807502
331     3  -4.343839950380   4.989143779549  -7.901001300616
332     1  -8.739935006566   2.318091429728  -6.331819836555
333     2  -0.297328465173   2.787168420808  -7.213998168972
334     1  -8.704652039191   0.972031074390  -5.875741268274
335     1  -6.320015279552   2.397776053275  -7.155580403692
336     3  -8.420796633768   4.941251557640  -6.384380147581
337     2  -5.014657969034   0.319972050410  -8.384380212834
338     1  -6.525384282482   6.658318389670  -7.251367444211
339     2  -4.658630510101   9.774719395835  -6.768453766549
340     2  -7.553438331627   0.339305837776  -5.600805731404
341     2  -9.613563239141  -1.138323168014  -5.450148268245
342     1  -7.526308489228   3.052446799073  -6.712659768185
343     1  -7.719458316436   7.251302727146  -7.767691957370
344     1  -9.855743612026   0.173074870296  -5.748093810116
345     1  -5.158938859951   3.060854395921  -7.484366611783
346     1  -5.455220210667   7.523083967368  -6.937659290043
347     1  -3.909702668914   1.010488030160  -8.229215522363
348     1  -2.658811450099   2.942589290045  -7.434369687606
349     2  -4.304788157356   7.015291783041  -6.396141131847
350     2  -9.078435235164   9.047184838667  -8.315842757438
351     3  -6.469083894717   1.319908139331  -7.135036629948
352     1   6.855103719622  -1.948437528261   3.201469118426
353     1  10.393146442763  -0.080956296997   4.773485255973
354     1   8.137137664772  -8.231679551892   2.576944346896
355     2  10.308147349135   1.145633413148   5.281239794482
356     1   3.501790587666   0.521820490029   1.937656451918
357     1   7.097229960906  -9.086167042756   2.955662295928
358     2   5.810789466987   0.113853311474   1.571425022843
359     1   6.774312165004  -6.224461942373   3.088388566403
360     1   9.211124594380  -0.727974804140   4.515686215671
361     2   4.852487312981  -9.333730838518   3.700679258075
362     1   5.459127191253  -4.003283512086   2.800525734135
363     1   5.887297779116  -8.496380137775   3.381431646385
364     1   2.165392833213   0.082502381725   2.123650804139
365     1  11.747884035250  -0.698509653202   4.512574526612
366     1   5.600212910031  -2.556328399847   2.812775563847
367     2   9.079231247938  -6.082144568272   2.468197337401
368     1   2.027871051045  -1.241443903405   2.690599557084
369     2   8.066404845612  -0.093316584980   4.832798895555
370     3   4.659360963217  -4.567398692340   2.324510206893
371     1   9.202053925610  -2.040343801290   4.007441698916
372     2   9.245362207775  -8.745350981322   2.072208804580
373     1  10.471883781313  -2.633036901750   3.824833990155
374     1   7.769483442600  -4.120035589516   3.577399585210
375     3   6.934122166802  -0.863074809703   3.215128904310
376     2   4.522893179605  -6.688125698810   3.725728623662
377     1   4.458266816069  -1.623832120744   2.575222676656
378     2   0.814023305928  -1.728813974344   2.952202956025
379     2  10.617476862737  -3.872837356294   3.340409941051
380     2  12.867221082254  -2.658738653931   3.876435355129
381     1   7.920357509305  -2.745426405187   3.553019355708
382     1   4.644941503225  -0.323655706037   2.094873816429
383     1  11.726412089362  -1.992855583589   4.071975883024
384     1   6.590547286637  -4.730565320359   3.206019625584
385     1   3.180851333109  -2.019521919086   2.903140451732
386     1   5.705506495648  -7.109250908863   3.323888407497
387     1   8.025681622580  -6.836852025515   2.755051516324
388     2   2.958292749591  -3.262042639884   3.421225500920
389     2   3.751972344939   1.746041087354   1.532078971635
390     3   8.573475969338  -4.666379624476   4.066834915275
391     1  -7.589774471271   4.488711669719   0.235430602385
392     1 -11.174022973406   1.922251804250   0.614515808996
393     1  -1.450527297524   2.220871178855  -0.542082997339
394     2 -12.443869129266   2.500600665263   0.416606415938
395     1  -7.799811002160   8.686450243693  -0.725869649912
396     1  -1.446944622426   0.938323636099  -1.099873006256
397     2  -8.759814309414   6.486997375583  -0.969912254441
398     1  -3.911838721893   2.463761417050  -0.830639095583
399     1 -10.108564028938   2.780276235972   0.340929663043
400     2  -2.901381103895  -0.755617570096  -2.110022575168
401     1  -5.260062418237   4.584633639303  -0.610775746017
402     1  -2.735207087465   0.440128139793  -1.470648125195
403     1  -6.723594654349   9.590542858525  -0.390236317008
404     1 -11.038537546267   0.580487913101   0.979230302367
405     1  -6.478178744737   5.233887167713  -0.219135723963
406     2  -2.469538008057   4.244739458240   0.011219077046
407     1  -5.586459738487   8.966954128801   0.101125132652
408     2 -10.348154845055   4.096456754793   0.114857355802
409     3  -4.490062707185   5.266217755476  -0.967127099886
410     1  -8.778764790471   2.296661863185   0.516267913973
411     2  -0.254955970720   2.625574498615  -0.098047487616
412     1  -8.664104808513   0.917654269561   1.001665627900
413     1  -6.355473204570   2.494801878148  -0.240151005157
414     3  -8.425511323123   4.957420923200   0.751471578716
415     2  -5.000568722186   0.690313701924  -2.009061080180
416     1  -6.538950471930   6.679225729598  -0.226875236571
417     2  -4.414652507503   9.617250210487   0.349519176072
418     2  -7.519670911126   0.268005240319   1.078996933773
419     2  -9.481019746676  -1.221108762998   1.347533928795
420     1  -7.553226817417   3.093189832840   0.108268330889
421     1  -7.758607440138   7.295171997900  -0.590746965534
422     1  -9.714015240217   0.060273360481   1.050160376506
423     1  -5.170681482480   3.177799732759  -0.609145824882
424     1  -5.468818483714   7.568433301984   0.110446505735
425     1  -3.910830181436   1.192398061209  -1.417873023577
426     1  -2.633740108123   2.987100576042  -0.431008135116
427     2  -4.286337645354   6.964772889401   0.402212235995
428     2  -9.018006771658   9.235055277624  -1.116655929434
429     3  -6.352084205344   1.406720224792  -0.262724537309
430     1  -7.433161040384   4.567472239690   6.947144814684
431     1 -11.206790777547   2.117047156768   7.269313126056
432     1  -1.611859666914   1.994493617774   6.093115835393
433     2 -12.355666637388   2.656023931440   6.753513243437
434     1  -7.561609765779   8.862448665054   6.040151009031
435     1  -1.609222046155   0.652193031552   5.791251723427
436     2  -8.698459986778   6.765007697308   5.800476994394
437     1  -3.947618627584   2.282531756660   5.944798827044
438     1 -10.031577329771   2.926038811757   7.170153228185
439     2  -3.025730765879  -1.257160545945   5.420501330077
440     1  -5.169848112638   4.520206824532   6.113674427287
441     1  -2.914010360733   0.065236358070   5.579756594372
442     1  -6.440700037133   9.607780348132   6.307220410383
443     1 -11.150408494061   0.782958205065   7.741811109235
444     1  -6.312248463011   5.243188261175   6.377504493618
445     2  -2.498296999518   4.042339501962   6.721149866272
446     1  -5.308971758056   8.918509010810   6.758544692720
447     2 -10.102828847603   4.126818514977   6.560876721729
448     3  -4.297455792967   5.061347243275   5.752369257828
449     1  -8.761631729961   2.435638984338   7.505710080320
450     2  -0.441889916965   2.674428319321   6.296669963063
451     1  -8.702274885929   1.148322733958   8.043609140347
452     1  -6.338005126248   2.432763058951   6.713624465009
453     3  -8.206969696762   5.242660296675   7.307400249409
454     2  -5.218029305314   0.218757855179   5.353343174763
455     1  -6.390650183593   6.720321452601   6.468699084323
456     2  -4.278101715282   9.570861549811   7.306012531608
457     2  -7.517104126145   0.699519331125   8.591755725732
458     2  -9.780687408443  -0.784672426987   8.814496304154
459     1  -7.510161944954   3.189223210636   7.052976141408
460     1  -7.557826779633   7.465658917330   6.113772535202
461     1  -9.871292301434   0.382735281217   8.176252021104
462     1  -5.175209577802   3.059940392375   6.208697764345
463     1  -5.250998370432   7.537013077457   6.810040252324
464     1  -4.043898390397   0.894197631140   5.544056208973
465     1  -2.678745581586   2.856482024029   6.184848073040
466     2  -4.105756035506   7.001756074894   7.191099950997
467     2  -8.726512220375   9.437263357035   5.662234797570
468     3  -6.310217774664   1.363837737325   6.916279971937
469     3   1.064441900666   1.930076899609  -5.079698487077
470     4  -0.291312667679   0.552986240246  -4.344529666630
471     1   0.927876924023   0.955556187020  -4.580581685535
472     3  -0.317509680598  -0.811005888804  -8.830883478524
473     4   0.994430847062   0.578697342181  -7.846661426198
474     1  -0.182177666304   0.124852406187  -8.262277556993
475     3   8.001655329494 -10.831063185044  -4.964579265490
476     4   6.051484799301 -11.123749967306  -4.180925606733
477     1   7.092174246462 -10.421434127093  -4.492873437137
478     3  -8.126515883990  11.251178021820  -7.709245020038
479     4   6.886570200652 -10.776961572271  -7.606744470881
480     1  -7.085296875915  10.886061543196  -7.705910248074
481     3 -12.175174369151  -1.122217845347  -5.232214959541
482     4  12.526482585361   0.358636994004  -5.945398503080
483     1 -12.368260913897  -0.088381899571  -5.565919944907
484     3 -13.553441702789   1.918756790562  -8.985170742796
485     4 -12.188714959086   0.331448942702  -9.468019976825
486     1 -13.375921895119   0.856390287399  -9.224591554003
487     3   1.270106474886   2.059878229728   1.594139219108
488     4  -0.183959168978   0.665411553453   2.287993678702
489     1   1.012716679651   1.051518502296   1.960771656838
490     3  -0.429619416057  -0.882124296169  -1.579967283074
491     4   0.966858143962   0.473732139476  -0.951374744666
492     1  -0.195809695727   0.117488952262  -1.175536127286